# GHz S RI R 50
1.000000000 9.306615430275e-01 -5.770490158630e-02 1.712481666018e-01 -7.130375238810e-01 1.712481666018e-01 -7.130375238810e-01 9.306615430275e-01 -5.770490158630e-02
1.050000000 9.246629684389e-01 -6.066100152649e-02 1.500089986588e-01 -7.555364116688e-01 1.500089986588e-01 -7.555364116688e-01 9.246629684389e-01 -6.066100152649e-02
1.100000000 9.198156484057e-01 -6.048516154633e-02 8.586074605955e-02 -7.845971989763e-01 8.586074605955e-02 -7.845971989763e-01 9.198156484057e-01 -6.048516154633e-02
1.150000000 9.176908064958e-01 -5.999625931262e-02 1.525960068187e-02 -7.736974970349e-01 1.525960068187e-02 -7.736974970349e-01 9.176908064958e-01 -5.999625931262e-02
1.200000000 9.164692087010e-01 -6.151213440536e-02 -2.831676223905e-02 -7.423683737916e-01 -2.831676223905e-02 -7.423683737916e-01 9.164692087010e-01 -6.151213440536e-02
1.250000000 9.134937682714e-01 -6.457624536930e-02 -4.550166072508e-02 -7.226136089642e-01 -4.550166072508e-02 -7.226136089642e-01 9.134937682714e-01 -6.457624536930e-02
1.300000000 9.075734236010e-01 -6.657943024739e-02 -6.105260741295e-02 -7.308029902706e-01 -6.105260741295e-02 -7.308029902706e-01 9.075734236010e-01 -6.657943024739e-02
1.350000000 9.006238287528e-01 -6.454998436901e-02 -1.046088219922e-01 -7.536651086863e-01 -1.046088219922e-01 -7.536651086863e-01 9.006238287528e-01 -6.454998436901e-02
1.400000000 8.969115576914e-01 -5.897285750414e-02 -1.768190740998e-01 -7.544496169121e-01 -1.768190740998e-01 -7.544496169121e-01 8.969115576914e-01 -5.897285750414e-02
1.450000000 8.976765152312e-01 -5.415349945009e-02 -2.431366988127e-01 -7.191836605545e-01 -2.431366988127e-01 -7.191836605545e-01 8.976765152312e-01 -5.415349945009e-02
1.500000000 8.999516572983e-01 -5.262983686186e-02 -2.804564862379e-01 -6.705179481796e-01 -2.804564862379e-01 -6.705179481796e-01 8.999516572983e-01 -5.262983686186e-02
1.550000000 9.008067582285e-01 -5.342985670373e-02 -2.944755982291e-01 -6.334695314428e-01 -2.944755982291e-01 -6.334695314428e-01 9.008067582285e-01 -5.342985670373e-02
1.600000000 8.994107445010e-01 -5.410274987845e-02 -3.042960115094e-01 -6.176377294824e-01 -3.042960115094e-01 -6.176377294824e-01 8.994107445010e-01 -5.410274987845e-02
1.650000000 8.972260176020e-01 -5.259684913301e-02 -3.285510826012e-01 -6.147920644196e-01 -3.285510826012e-01 -6.147920644196e-01 8.972260176020e-01 -5.259684913301e-02
1.700000000 8.968879753532e-01 -4.920105727024e-02 -3.702949286405e-01 -6.045876542869e-01 -3.702949286405e-01 -6.045876542869e-01 8.968879753532e-01 -4.920105727024e-02
1.750000000 8.992543444709e-01 -4.644468098637e-02 -4.134230079464e-01 -5.758245489866e-01 -4.134230079464e-01 -5.758245489866e-01 8.992543444709e-01 -4.644468098637e-02
1.800000000 9.026130028863e-01 -4.604928941209e-02 -4.432270175168e-01 -5.368099244846e-01 -4.432270175168e-01 -5.368099244846e-01 9.026130028863e-01 -4.604928941209e-02
1.850000000 9.049600911303e-01 -4.757527723957e-02 -4.594846950059e-01 -5.011808586447e-01 -4.594846950059e-01 -5.011808586447e-01 9.049600911303e-01 -4.757527723957e-02
1.900000000 9.055023170172e-01 -4.943279891933e-02 -4.712174556779e-01 -4.758143229422e-01 -4.712174556779e-01 -4.758143229422e-01 9.055023170172e-01 -4.943279891933e-02
1.950000000 9.049200520639e-01 -5.005695144915e-02 -4.885600414821e-01 -4.580700213967e-01 -4.885600414821e-01 -4.580700213967e-01 9.049200520639e-01 -5.005695144915e-02
2.000000000 9.049376660214e-01 -4.909279987267e-02 -5.150051750893e-01 -4.381174160640e-01 -5.150051750893e-01 -4.381174160640e-01 9.049376660214e-01 -4.909279987267e-02
2.050000000 9.067373447398e-01 -4.787371960253e-02 -5.438458545998e-01 -4.082262542239e-01 -5.438458545998e-01 -4.082262542239e-01 9.067373447398e-01 -4.787371960253e-02
2.100000000 9.097571227225e-01 -4.797334521225e-02 -5.660186815341e-01 -3.703978586820e-01 -5.660186815341e-01 -3.703978586820e-01 9.097571227225e-01 -4.797334521225e-02
2.150000000 9.125713643271e-01 -4.970966221899e-02 -5.789291047481e-01 -3.319534690103e-01 -5.789291047481e-01 -3.319534690103e-01 9.125713643271e-01 -4.970966221899e-02
2.200000000 9.142047196166e-01 -5.227094246400e-02 -5.860065044015e-01 -2.982155223128e-01 -5.860065044015e-01 -2.982155223128e-01 9.142047196166e-01 -5.227094246400e-02
2.250000000 9.146420465695e-01 -5.447599983150e-02 -5.925947695717e-01 -2.699917602368e-01 -5.925947695717e-01 -2.699917602368e-01 9.146420465695e-01 -5.447599983150e-02
2.300000000 9.148090606291e-01 -5.557725519594e-02 -6.023849607133e-01 -2.440096123996e-01 -6.023849607133e-01 -2.440096123996e-01 9.148090606291e-01 -5.557725519594e-02
2.350000000 9.158700252849e-01 -5.594107735786e-02 -6.148497536095e-01 -2.157158312300e-01 -6.148497536095e-01 -2.157158312300e-01 9.158700252849e-01 -5.594107735786e-02
2.400000000 9.181100266400e-01 -5.673265905649e-02 -6.262644420612e-01 -1.833845866381e-01 -6.262644420612e-01 -1.833845866381e-01 9.181100266400e-01 -5.673265905649e-02
2.450000000 9.207662789215e-01 -5.875820457778e-02 -6.336921959482e-01 -1.489099571110e-01 -6.336921959482e-01 -1.489099571110e-01 9.207662789215e-01 -5.875820457778e-02
2.500000000 9.228449826985e-01 -6.191133980627e-02 -6.369009696479e-01 -1.151979980391e-01 -6.369009696479e-01 -1.151979980391e-01 9.228449826985e-01 -6.191133980627e-02
2.550000000 9.238101109937e-01 -6.542794328283e-02 -6.375787271178e-01 -8.413786764715e-02 -6.375787271178e-01 -8.413786764715e-02 9.238101109937e-01 -6.542794328283e-02
2.600000000 9.238892323062e-01 -6.839883416826e-02 -6.381176337782e-01 -5.593174504136e-02 -6.381176337782e-01 -5.593174504136e-02 9.238892323062e-01 -6.839883416826e-02
2.650000000 9.239879732388e-01 -7.044155692163e-02 -6.403513370680e-01 -2.901641365379e-02 -6.403513370680e-01 -2.901641365379e-02 9.239879732388e-01 -7.044155692163e-02
2.700000000 9.249520758929e-01 -7.212469603827e-02 -6.443229973418e-01 -1.019487217454e-03 -6.443229973418e-01 -1.019487217454e-03 9.249520758929e-01 -7.212469603827e-02
2.750000000 9.267601113627e-01 -7.445893898532e-02 -6.483997285873e-01 2.951479375732e-02 -6.483997285873e-01 2.951479375732e-02 9.267601113627e-01 -7.445893898532e-02
2.800000000 9.286149789790e-01 -7.799301781060e-02 -6.506659745860e-01 6.241619424825e-02 -6.506659745860e-01 6.241619424825e-02 9.286149789790e-01 -7.799301781060e-02
2.850000000 9.296155263931e-01 -8.247748171867e-02 -6.499570009771e-01 9.637972504936e-02 -6.499570009771e-01 9.637972504936e-02 9.296155263931e-01 -8.247748171867e-02
2.900000000 9.293418690844e-01 -8.705483295244e-02 -6.463163267169e-01 1.296102960664e-01 -6.463163267169e-01 1.296102960664e-01 9.293418690844e-01 -8.705483295244e-02
2.950000000 9.282309601687e-01 -9.079547086171e-02 -6.413202868468e-01 1.607578963425e-01 -6.413202868468e-01 1.607578963425e-01 9.282309601687e-01 -9.079547086171e-02
3.000000000 9.273822741939e-01 -9.352913160898e-02 -6.374101475851e-01 1.903646145861e-01 -6.374101475851e-01 1.903646145861e-01 9.273822741939e-01 -9.352913160898e-02
3.050000000 9.275459977492e-01 -9.615124303004e-02 -6.357311314629e-01 2.211160658586e-01 -6.357311314629e-01 2.211160658586e-01 9.275459977492e-01 -9.615124303004e-02
3.100000000 9.283611609086e-01 -9.978882573715e-02 -6.347453409703e-01 2.558306042476e-01 -6.347453409703e-01 2.558306042476e-01 9.283611609086e-01 -9.978882573715e-02
3.150000000 9.286988751710e-01 -1.048225608286e-01 -6.311351381121e-01 2.953314997308e-01 -6.311351381121e-01 2.953314997308e-01 9.286988751710e-01 -1.048225608286e-01
3.200000000 9.274967614061e-01 -1.106010421696e-01 -6.217362926926e-01 3.376682981137e-01 -6.217362926926e-01 3.376682981137e-01 9.274967614061e-01 -1.106010421696e-01
3.250000000 9.245729561232e-01 -1.157646322785e-01 -6.058679897213e-01 3.786938263130e-01 -6.058679897213e-01 3.786938263130e-01 9.245729561232e-01 -1.157646322785e-01
3.300000000 9.210570524235e-01 -1.192872057987e-01 -5.870293477104e-01 4.151147249309e-01 -5.870293477104e-01 4.151147249309e-01 9.210570524235e-01 -1.192872057987e-01
3.350000000 9.185067692859e-01 -1.216694567518e-01 -5.703677718167e-01 4.486612165143e-01 -5.703677718167e-01 4.486612165143e-01 9.185067692859e-01 -1.216694567518e-01
3.400000000 9.172278579981e-01 -1.245589124293e-01 -5.568476797088e-01 4.853124501863e-01 -5.568476797088e-01 4.853124501863e-01 9.172278579981e-01 -1.245589124293e-01
3.450000000 9.159497882300e-01 -1.290770426736e-01 -5.414602229766e-01 5.295439804564e-01 -5.414602229766e-01 5.295439804564e-01 9.159497882300e-01 -1.290770426736e-01
3.500000000 9.129385603836e-01 -1.348170600376e-01 -5.167383753849e-01 5.800346386072e-01 -5.167383753849e-01 5.800346386072e-01 9.129385603836e-01 -1.348170600376e-01
3.550000000 9.073855950050e-01 -1.399588730280e-01 -4.783575746750e-01 6.290858437724e-01 -4.783575746750e-01 6.290858437724e-01 9.073855950050e-01 -1.399588730280e-01
3.600000000 9.004825854603e-01 -1.425634444686e-01 -4.307178250635e-01 6.674606520441e-01 -4.307178250635e-01 6.674606520441e-01 9.004825854603e-01 -1.425634444686e-01
3.650000000 8.947072125125e-01 -1.427027701299e-01 -3.850041641934e-01 6.944700755754e-01 -3.850041641934e-01 6.944700755754e-01 8.947072125125e-01 -1.427027701299e-01
3.700000000 8.911182301659e-01 -1.426291342606e-01 -3.466769035296e-01 7.202869034393e-01 -3.466769035296e-01 7.202869034393e-01 8.911182301659e-01 -1.426291342606e-01
3.750000000 8.882555366090e-01 -1.442247267857e-01 -3.087095317550e-01 7.543828759915e-01 -3.087095317550e-01 7.543828759915e-01 8.882555366090e-01 -1.442247267857e-01
3.800000000 8.837867606298e-01 -1.471685354390e-01 -2.584866545923e-01 7.953088261982e-01 -2.584866545923e-01 7.953088261982e-01 8.837867606298e-01 -1.471685354390e-01
3.850000000 8.766493937474e-01 -1.491518255843e-01 -1.892604336474e-01 8.300520684677e-01 -1.892604336474e-01 8.300520684677e-01 8.766493937474e-01 -1.491518255843e-01
3.900000000 8.684420465462e-01 -1.477508985197e-01 -1.095123629202e-01 8.435550724291e-01 -1.095123629202e-01 8.435550724291e-01 8.684420465462e-01 -1.477508985197e-01
3.950000000 8.623641653349e-01 -1.432056278431e-01 -3.845272251231e-02 8.357957503262e-01 -3.845272251231e-02 8.357957503262e-01 8.623641653349e-01 -1.432056278431e-01
4.000000000 8.596680050365e-01 -1.384721100021e-01 1.539370943466e-02 8.240283928538e-01 1.539370943466e-02 8.240283928538e-01 8.596680050365e-01 -1.384721100021e-01
4.050000000 8.585009219459e-01 -1.358066072767e-01 6.310488871751e-02 8.222791777824e-01 6.310488871751e-02 8.222791777824e-01 8.585009219459e-01 -1.358066072767e-01
4.100000000 8.563035830259e-01 -1.347611225576e-01 1.212153403417e-01 8.272591054986e-01 1.212153403417e-01 8.272591054986e-01 8.563035830259e-01 -1.347611225576e-01
4.150000000 8.522059031663e-01 -1.330054075532e-01 1.951633253970e-01 8.223608371705e-01 1.951633253970e-01 8.223608371705e-01 8.522059031663e-01 -1.330054075532e-01
4.200000000 8.478981892005e-01 -1.285397679949e-01 2.718740111742e-01 7.930581892773e-01 2.718740111742e-01 7.930581892773e-01 8.478981892005e-01 -1.285397679949e-01
4.250000000 8.461275715201e-01 -1.219730802892e-01 3.304060176556e-01 7.443561176671e-01 3.304060176556e-01 7.443561176671e-01 8.461275715201e-01 -1.219730802892e-01
4.300000000 8.476337010439e-01 -1.160357844519e-01 3.654600740657e-01 6.973070785678e-01 3.654600740657e-01 6.973070785678e-01 8.476337010439e-01 -1.160357844519e-01
4.350000000 8.505897132215e-01 -1.125527372000e-01 3.917097724508e-01 6.653249567975e-01 3.917097724508e-01 6.653249567975e-01 8.505897132215e-01 -1.125527372000e-01
4.400000000 8.528210479886e-01 -1.110589378192e-01 4.258869325085e-01 6.431536476014e-01 4.258869325085e-01 6.431536476014e-01 8.528210479886e-01 -1.110589378192e-01
4.450000000 8.535888136765e-01 -1.097517134225e-01 4.718270075847e-01 6.150234737302e-01 4.718270075847e-01 6.150234737302e-01 8.535888136765e-01 -1.097517134225e-01
4.500000000 8.539524997835e-01 -1.071410508583e-01 5.177439547996e-01 5.696010300397e-01 5.177439547996e-01 5.696010300397e-01 8.539524997835e-01 -1.071410508583e-01
4.550000000 8.557145437948e-01 -1.034281526625e-01 5.472823339776e-01 5.120166786667e-01 5.472823339776e-01 5.120166786667e-01 8.557145437948e-01 -1.034281526625e-01
4.600000000 8.595442126704e-01 -1.002788635111e-01 5.571248993656e-01 4.593246149629e-01 5.571248993656e-01 4.593246149629e-01 8.595442126704e-01 -1.002788635111e-01
4.650000000 8.644174337030e-01 -9.903770959072e-02 5.596640004526e-01 4.223043302648e-01 5.596640004526e-01 4.223043302648e-01 8.644174337030e-01 -9.903770959072e-02
4.700000000 8.688222652265e-01 -9.964674387716e-02 5.690917898090e-01 3.968133944081e-01 5.690917898090e-01 3.968133944081e-01 8.688222652265e-01 -9.964674387716e-02
4.750000000 8.719663774269e-01 -1.010218768302e-01 5.896210101289e-01 3.701324826902e-01 5.896210101289e-01 3.701324826902e-01 8.719663774269e-01 -1.010218768302e-01
4.800000000 8.741831126729e-01 -1.019780432135e-01 6.134460975247e-01 3.321444191257e-01 6.134460975247e-01 3.321444191257e-01 8.741831126729e-01 -1.019780432135e-01
4.850000000 8.765814128281e-01 -1.021322338109e-01 6.278601042490e-01 2.841776700831e-01 6.278601042490e-01 2.841776700831e-01 8.765814128281e-01 -1.021322338109e-01
4.900000000 8.800424541683e-01 -1.022045695043e-01 6.276244630892e-01 2.379804125496e-01 6.276244630892e-01 2.379804125496e-01 8.800424541683e-01 -1.022045695043e-01
4.950000000 8.844259870696e-01 -1.032801649908e-01 6.200244189390e-01 2.037880279623e-01 6.200244189390e-01 2.037880279623e-01 8.844259870696e-01 -1.032801649908e-01
5.000000000 8.888224707948e-01 -1.058409703157e-01 6.168905477292e-01 1.810900775337e-01 6.168905477292e-01 1.810900775337e-01 8.888224707948e-01 -1.058409703157e-01
5.050000000 8.923448216924e-01 -1.095154459986e-01 6.242959431553e-01 1.606205139799e-01 6.242959431553e-01 1.606205139799e-01 8.923448216924e-01 -1.095154459986e-01
5.100000000 8.947032989646e-01 -1.134319531067e-01 6.385881488192e-01 1.323667269726e-01 6.385881488192e-01 1.323667269726e-01 8.947032989646e-01 -1.134319531067e-01
5.150000000 8.963829833540e-01 -1.168250297180e-01 6.494950701316e-01 9.354458930063e-02 6.494950701316e-01 9.354458930063e-02 8.963829833540e-01 -1.168250297180e-01
5.200000000 8.982940641292e-01 -1.196437369787e-01 6.490210895487e-01 5.141667090501e-02 6.490210895487e-01 5.141667090501e-02 8.982940641292e-01 -1.196437369787e-01
5.250000000 9.009851119944e-01 -1.226263924646e-01 6.392653341744e-01 1.661948337385e-02 6.392653341744e-01 1.661948337385e-02 9.009851119944e-01 -1.226263924646e-01
5.300000000 9.041601256721e-01 -1.266461454808e-01 6.301888743536e-01 -7.083203216262e-03 6.301888743536e-01 -7.083203216262e-03 9.041601256721e-01 -1.266461454808e-01
5.350000000 9.069510536143e-01 -1.320106338018e-01 6.302956303164e-01 -2.563821382696e-02 6.302956303164e-01 -2.563821382696e-02 9.069510536143e-01 -1.320106338018e-01
5.400000000 9.085445951783e-01 -1.382625102753e-01 6.398766569361e-01 -4.935190098767e-02 6.398766569361e-01 -4.935190098767e-02 9.085445951783e-01 -1.382625102753e-01
5.450000000 9.087493614921e-01 -1.444511623951e-01 6.506189425208e-01 -8.478856362984e-02 6.506189425208e-01 -8.478856362984e-02 9.087493614921e-01 -1.444511623951e-01
5.500000000 9.082437721591e-01 -1.498114347162e-01 6.519473054925e-01 -1.286615864415e-01 6.519473054925e-01 -1.286615864415e-01 9.082437721591e-01 -1.498114347162e-01
5.550000000 9.080940726848e-01 -1.545071861726e-01 6.410287943952e-01 -1.698848551394e-01 6.410287943952e-01 -1.698848551394e-01 9.080940726848e-01 -1.545071861726e-01
5.600000000 9.087376371652e-01 -1.595887481863e-01 6.260758006819e-01 -2.003721818287e-01 6.260758006819e-01 -2.003721818287e-01 9.087376371652e-01 -1.595887481863e-01
5.650000000 9.095063723866e-01 -1.660606772179e-01 6.182102026571e-01 -2.229346977932e-01 6.182102026571e-01 -2.229346977932e-01 9.095063723866e-01 -1.660606772179e-01
5.700000000 9.091070077076e-01 -1.740173277045e-01 6.213421782947e-01 -2.485273950797e-01 6.213421782947e-01 -2.485273950797e-01 9.091070077076e-01 -1.740173277045e-01
5.750000000 9.065541209248e-01 -1.824345780686e-01 6.284726027515e-01 -2.872262737261e-01 6.284726027515e-01 -2.872262737261e-01 9.065541209248e-01 -1.824345780686e-01
5.800000000 9.020769074736e-01 -1.897655194294e-01 6.263270248181e-01 -3.390184013074e-01 6.263270248181e-01 -3.390184013074e-01 9.020769074736e-01 -1.897655194294e-01
5.850000000 8.972017472948e-01 -1.953144026474e-01 6.074460812693e-01 -3.918975577081e-01 6.074460812693e-01 -3.918975577081e-01 8.972017472948e-01 -1.953144026474e-01
5.900000000 8.933238639857e-01 -2.001312218400e-01 5.787911968568e-01 -4.333007792686e-01 5.787911968568e-01 -4.333007792686e-01 8.933238639857e-01 -2.001312218400e-01
5.950000000 8.901472175779e-01 -2.060154009921e-01 5.544423587291e-01 -4.634244865083e-01 5.544423587291e-01 -4.634244865083e-01 8.901472175779e-01 -2.060154009921e-01
6.000000000 8.858318066369e-01 -2.136984088530e-01 5.411297525889e-01 -4.945371127530e-01 5.411297525889e-01 -4.945371127530e-01 8.858318066369e-01 -2.136984088530e-01
6.050000000 8.784921023908e-01 -2.219509915768e-01 5.316191617460e-01 -5.394978193050e-01 5.316191617460e-01 -5.394978193050e-01 8.784921023908e-01 -2.219509915768e-01
6.100000000 8.679936282869e-01 -2.281715523995e-01 5.095359424203e-01 -5.992632645641e-01 5.095359424203e-01 -5.992632645641e-01 8.679936282869e-01 -2.281715523995e-01
6.150000000 8.566809686278e-01 -2.306457109561e-01 4.646101940676e-01 -6.589112404564e-01 4.646101940676e-01 -6.589112404564e-01 8.566809686278e-01 -2.306457109561e-01
6.200000000 8.472658317773e-01 -2.306265887388e-01 4.051844327905e-01 -7.017485678529e-01 4.051844327905e-01 -7.017485678529e-01 8.472658317773e-01 -2.306265887388e-01
6.250000000 8.397918364394e-01 -2.309894133819e-01 3.488983661588e-01 -7.275189383873e-01 3.488983661588e-01 -7.275189383873e-01 8.397918364394e-01 -2.309894133819e-01
6.300000000 8.317251660055e-01 -2.329557231923e-01 3.032330391469e-01 -7.504854009466e-01 3.032330391469e-01 -7.504854009466e-01 8.317251660055e-01 -2.329557231923e-01
6.350000000 8.206464056281e-01 -2.347055444563e-01 2.591384612937e-01 -7.833508083998e-01 2.591384612937e-01 -7.833508083998e-01 8.206464056281e-01 -2.347055444563e-01
6.400000000 8.069755037762e-01 -2.327326968418e-01 2.000206640592e-01 -8.236944276238e-01 2.000206640592e-01 -8.236944276238e-01 8.069755037762e-01 -2.327326968418e-01
6.450000000 7.944544217700e-01 -2.254036599467e-01 1.197353173293e-01 -8.537548770152e-01 1.197353173293e-01 -8.537548770152e-01 7.944544217700e-01 -2.254036599467e-01
6.500000000 7.865100784728e-01 -2.153193559553e-01 3.187492600249e-02 -8.590959764060e-01 3.187492600249e-02 -8.590959764060e-01 7.865100784728e-01 -2.153193559553e-01
6.550000000 7.825285133397e-01 -2.064418705569e-01 -4.553354746994e-02 -8.444072238526e-01 -4.553354746994e-02 -8.444072238526e-01 7.825285133397e-01 -2.064418705569e-01
6.600000000 7.792540789180e-01 -1.998955919823e-01 -1.082606757283e-01 -8.249072632302e-01 -1.082606757283e-01 -8.249072632302e-01 7.792540789180e-01 -1.998955919823e-01
6.650000000 7.745332440260e-01 -1.935539390103e-01 -1.654719266760e-01 -8.097899813444e-01 -1.654719266760e-01 -8.097899813444e-01 7.745332440260e-01 -1.935539390103e-01
6.700000000 7.693996401120e-01 -1.846059376235e-01 -2.279002442765e-01 -7.952558343935e-01 -2.279002442765e-01 -7.952558343935e-01 7.693996401120e-01 -1.846059376235e-01
6.750000000 7.670946720635e-01 -1.727885788813e-01 -2.959825817791e-01 -7.700896355082e-01 -2.959825817791e-01 -7.700896355082e-01 7.670946720635e-01 -1.727885788813e-01
6.800000000 7.694350058983e-01 -1.610361362487e-01 -3.592501186873e-01 -7.292736722909e-01 -3.592501186873e-01 -7.292736722909e-01 7.694350058983e-01 -1.610361362487e-01
6.850000000 7.748628825988e-01 -1.522767460895e-01 -4.085524341944e-01 -6.794291049286e-01 -4.085524341944e-01 -6.794291049286e-01 7.748628825988e-01 -1.522767460895e-01
6.900000000 7.805026221517e-01 -1.467836740803e-01 -4.442073204816e-01 -6.305159477532e-01 -4.442073204816e-01 -6.305159477532e-01 7.805026221517e-01 -1.467836740803e-01
6.950000000 7.847965482658e-01 -1.427247837198e-01 -4.728545890766e-01 -5.873507822637e-01 -4.728545890766e-01 -5.873507822637e-01 7.847965482658e-01 -1.427247837198e-01
7.000000000 7.883415762427e-01 -1.381413174859e-01 -5.007800431244e-01 -5.480197556271e-01 -5.007800431244e-01 -5.480197556271e-01 7.883415762427e-01 -1.381413174859e-01
7.050000000 7.929737166347e-01 -1.326714802878e-01 -5.292873494895e-01 -5.073993272819e-01 -5.292873494895e-01 -5.073993272819e-01 7.929737166347e-01 -1.326714802878e-01
7.100000000 7.998057921580e-01 -1.277618717355e-01 -5.548668533661e-01 -4.626950549543e-01 -5.548668533661e-01 -4.626950549543e-01 7.998057921580e-01 -1.277618717355e-01
7.150000000 8.081481333365e-01 -1.250534619183e-01 -5.738453042720e-01 -4.157993577124e-01 -5.738453042720e-01 -4.157993577124e-01 8.081481333365e-01 -1.250534619183e-01
7.200000000 8.163886370292e-01 -1.248929151271e-01 -5.859335407710e-01 -3.705828212905e-01 -5.859335407710e-01 -3.705828212905e-01 8.163886370292e-01 -1.248929151271e-01
7.250000000 8.233883962732e-01 -1.263713233781e-01 -5.936769398262e-01 -3.294837381292e-01 -5.936769398262e-01 -3.294837381292e-01 8.233883962732e-01 -1.263713233781e-01
7.300000000 8.291087320221e-01 -1.282195359528e-01 -6.001659075124e-01 -2.923864602237e-01 -6.001659075124e-01 -2.923864602237e-01 8.291087320221e-01 -1.282195359528e-01
7.350000000 8.344213699639e-01 -1.297292599874e-01 -6.071568552369e-01 -2.573386199975e-01 -6.071568552369e-01 -2.573386199975e-01 8.344213699639e-01 -1.297292599874e-01
7.400000000 8.403067873092e-01 -1.312211634776e-01 -6.143645308080e-01 -2.222310253001e-01 -6.143645308080e-01 -2.222310253001e-01 8.403067873092e-01 -1.312211634776e-01
7.450000000 8.469939482013e-01 -1.336619487109e-01 -6.203086086293e-01 -1.863118032349e-01 -6.203086086293e-01 -1.863118032349e-01 8.469939482013e-01 -1.336619487109e-01
7.500000000 8.538335973649e-01 -1.377821930921e-01 -6.238585464744e-01 -1.503014533557e-01 -6.238585464744e-01 -1.503014533557e-01 8.538335973649e-01 -1.377821930921e-01
7.550000000 8.598720424978e-01 -1.435643860635e-01 -6.249989167282e-01 -1.154103596545e-01 -6.249989167282e-01 -1.154103596545e-01 8.598720424978e-01 -1.435643860635e-01
7.600000000 8.644762151807e-01 -1.503345054909e-01 -6.246253365236e-01 -8.244453656482e-02 -6.246253365236e-01 -8.244453656482e-02 8.644762151807e-01 -1.503345054909e-01
7.650000000 8.676917923852e-01 -1.571924682425e-01 -6.239987577721e-01 -5.139429508713e-02 -6.239987577721e-01 -5.139429508713e-02 8.676917923852e-01 -1.571924682425e-01
7.700000000 8.702292745433e-01 -1.636073839632e-01 -6.241243959110e-01 -2.138834055441e-02 -6.241243959110e-01 -2.138834055441e-02 8.702292745433e-01 -1.636073839632e-01
7.750000000 8.729346238537e-01 -1.698651750106e-01 -6.251904181761e-01 8.913931198645e-03 -6.251904181761e-01 8.913931198645e-03 8.729346238537e-01 -1.698651750106e-01
7.800000000 8.760381946385e-01 -1.768756933196e-01 -6.264751599383e-01 4.058671124025e-02 -6.264751599383e-01 4.058671124025e-02 8.760381946385e-01 -1.768756933196e-01
7.850000000 8.788871920470e-01 -1.854245476494e-01 -6.268384763826e-01 7.391113490640e-02 -6.268384763826e-01 7.391113490640e-02 8.788871920470e-01 -1.854245476494e-01
7.900000000 8.803568188642e-01 -1.955302775416e-01 -6.253584102728e-01 1.083542514000e-01 -6.253584102728e-01 1.083542514000e-01 8.803568188642e-01 -1.955302775416e-01
7.950000000 8.795925741350e-01 -2.062946188441e-01 -6.218376588075e-01 1.428894668653e-01 -6.218376588075e-01 1.428894668653e-01 8.795925741350e-01 -2.062946188441e-01
8.000000000 8.767377415359e-01 -2.163761957179e-01 -6.171180882173e-01 1.766692542069e-01 -6.171180882173e-01 1.766692542069e-01 8.767377415359e-01 -2.163761957179e-01
8.050000000 8.730457969141e-01 -2.250866013022e-01 -6.127214528908e-01 2.100173724252e-01 -6.127214528908e-01 2.100173724252e-01 8.730457969141e-01 -2.250866013022e-01
8.100000000 8.697944439421e-01 -2.332206747419e-01 -6.094928547991e-01 2.448044595996e-01 -6.094928547991e-01 2.448044595996e-01 8.697944439421e-01 -2.332206747419e-01
8.150000000 8.668736079634e-01 -2.424189739028e-01 -6.063729217197e-01 2.833342181346e-01 -6.063729217197e-01 2.833342181346e-01 8.668736079634e-01 -2.424189739028e-01
8.200000000 8.626230494142e-01 -2.535777503421e-01 -6.006101113660e-01 3.266090403223e-01 -6.006101113660e-01 3.266090403223e-01 8.626230494142e-01 -2.535777503421e-01
8.250000000 8.550240335244e-01 -2.657763770387e-01 -5.892414448326e-01 3.732681964615e-01 -5.892414448326e-01 3.732681964615e-01 8.550240335244e-01 -2.657763770387e-01
8.300000000 8.434605476854e-01 -2.764984415395e-01 -5.712812400199e-01 4.199027942597e-01 -5.712812400199e-01 4.199027942597e-01 8.434605476854e-01 -2.764984415395e-01
8.350000000 8.298273303116e-01 -2.835749238718e-01 -5.492858527027e-01 4.637084703448e-01 -5.492858527027e-01 4.637084703448e-01 8.298273303116e-01 -2.835749238718e-01
8.400000000 8.170283274117e-01 -2.876025983914e-01 -5.272356929648e-01 5.061312839130e-01 -5.272356929648e-01 5.061312839130e-01 8.170283274117e-01 -2.876025983914e-01
8.450000000 8.056938568277e-01 -2.914448806686e-01 -5.053588858467e-01 5.523887726376e-01 -5.053588858467e-01 5.523887726376e-01 8.056938568277e-01 -2.914448806686e-01
8.500000000 7.932973034493e-01 -2.968753827437e-01 -4.780646992064e-01 6.061622987282e-01 -4.780646992064e-01 6.061622987282e-01 7.932973034493e-01 -2.968753827437e-01
8.550000000 7.766217778690e-01 -3.022141293626e-01 -4.373410272132e-01 6.647417442143e-01 -4.373410272132e-01 6.647417442143e-01 7.766217778690e-01 -3.022141293626e-01
8.600000000 7.553106023771e-01 -3.029814206516e-01 -3.795589414472e-01 7.184201758213e-01 -3.795589414472e-01 7.184201758213e-01 7.553106023771e-01 -3.029814206516e-01
8.650000000 7.336415748153e-01 -2.959417725640e-01 -3.113966894582e-01 7.574204054367e-01 -3.113966894582e-01 7.574204054367e-01 7.336415748153e-01 -2.959417725640e-01
8.700000000 7.169021081854e-01 -2.833069167079e-01 -2.449074563105e-01 7.829605091420e-01 -2.449074563105e-01 7.829605091420e-01 7.169021081854e-01 -2.833069167079e-01
8.750000000 7.055227719370e-01 -2.704025205645e-01 -1.831951344997e-01 8.060178000078e-01 -1.831951344997e-01 8.060178000078e-01 7.055227719370e-01 -2.704025205645e-01
8.800000000 6.954762405643e-01 -2.594282958173e-01 -1.168564767364e-01 8.328321954155e-01 -1.168564767364e-01 8.328321954155e-01 6.954762405643e-01 -2.594282958173e-01
8.850000000 6.835843595041e-01 -2.476400334741e-01 -3.526605505067e-02 8.560772769886e-01 -3.526605505067e-02 8.560772769886e-01 6.835843595041e-01 -2.476400334741e-01
8.900000000 6.713991131736e-01 -2.307602076969e-01 5.976455572593e-02 8.599593200013e-01 5.976455572593e-02 8.599593200013e-01 6.713991131736e-01 -2.307602076969e-01
8.950000000 6.642085665910e-01 -2.083624668194e-01 1.508950104701e-01 8.370321780944e-01 1.508950104701e-01 8.370321780944e-01 6.642085665910e-01 -2.083624668194e-01
9.000000000 6.650408384460e-01 -1.853181105272e-01 2.223601513585e-01 7.997053463088e-01 2.223601513585e-01 7.997053463088e-01 6.650408384460e-01 -1.853181105272e-01
9.050000000 6.712707037608e-01 -1.663245477076e-01 2.777841909837e-01 7.664664483895e-01 2.777841909837e-01 7.664664483895e-01 6.712707037608e-01 -1.663245477076e-01
9.100000000 6.784466884926e-01 -1.514187807057e-01 3.331524060030e-01 7.416111601109e-01 3.331524060030e-01 7.416111601109e-01 6.784466884926e-01 -1.514187807057e-01
9.150000000 6.849249140470e-01 -1.374761456161e-01 3.982852267139e-01 7.135924424929e-01 3.982852267139e-01 7.135924424929e-01 6.849249140470e-01 -1.374761456161e-01
9.200000000 6.927108402345e-01 -1.221647631586e-01 4.668519406666e-01 6.683396062662e-01 4.668519406666e-01 6.683396062662e-01 6.927108402345e-01 -1.221647631586e-01
9.250000000 7.047501579513e-01 -1.065829050717e-01 5.223408694352e-01 6.052146898891e-01 5.223408694352e-01 6.052146898891e-01 7.047501579513e-01 -1.065829050717e-01
9.300000000 7.213445476230e-01 -9.402244880226e-02 5.563419267389e-01 5.388434373945e-01 5.563419267389e-01 5.388434373945e-01 7.213445476230e-01 -9.402244880226e-02
9.350000000 7.400116502338e-01 -8.636888363683e-02 5.769022820742e-01 4.826222354239e-01 5.769022820742e-01 4.826222354239e-01 7.400116502338e-01 -8.636888363683e-02
9.400000000 7.583112269800e-01 -8.293163304830e-02 5.973656700805e-01 4.364023534174e-01 5.973656700805e-01 4.364023534174e-01 7.583112269800e-01 -8.293163304830e-02
9.450000000 7.755334395198e-01 -8.206674711428e-02 6.232483779476e-01 3.904760615352e-01 6.232483779476e-01 3.904760615352e-01 7.755334395198e-01 -8.206674711428e-02
9.500000000 7.922661319642e-01 -8.284231205588e-02 6.494072594634e-01 3.365183977623e-01 6.494072594634e-01 3.365183977623e-01 7.922661319642e-01 -8.284231205588e-02
9.550000000 8.091508548093e-01 -8.545093055954e-02 6.666929403087e-01 2.751011801110e-01 6.666929403087e-01 2.751011801110e-01 8.091508548093e-01 -8.545093055954e-02
9.600000000 8.260844162373e-01 -9.053876937615e-02 6.711453348866e-01 2.140618808359e-01 6.711453348866e-01 2.140618808359e-01 8.260844162373e-01 -9.053876937615e-02
9.650000000 8.423841170444e-01 -9.840796903960e-02 6.666790878945e-01 1.605447035856e-01 6.666790878945e-01 1.605447035856e-01 8.423841170444e-01 -9.840796903960e-02
9.700000000 8.573578541442e-01 -1.088618325329e-01 6.604032788649e-01 1.158267340313e-01 6.604032788649e-01 1.158267340313e-01 8.573578541442e-01 -1.088618325329e-01
9.750000000 8.705693374746e-01 -1.214875625955e-01 6.573215252380e-01 7.609148444666e-02 6.573215252380e-01 7.609148444666e-02 8.705693374746e-01 -1.214875625955e-01
9.800000000 8.817699752080e-01 -1.358705568467e-01 6.580968609764e-01 3.573161344499e-02 6.580968609764e-01 3.573161344499e-02 8.817699752080e-01 -1.358705568467e-01
9.850000000 8.907928871877e-01 -1.516003019078e-01 6.592267408743e-01 -9.406777571758e-03 6.592267408743e-01 -9.406777571758e-03 8.907928871877e-01 -1.516003019078e-01
9.900000000 8.975898251534e-01 -1.682118078843e-01 6.550293823248e-01 -5.933770024682e-02 6.550293823248e-01 -5.933770024682e-02 8.975898251534e-01 -1.682118078843e-01
9.950000000 9.023681686667e-01 -1.852775710569e-01 6.416760751107e-01 -1.090248615490e-01 6.416760751107e-01 -1.090248615490e-01 9.023681686667e-01 -1.852775710569e-01
10.000000000 9.055548522101e-01 -2.027128267322e-01 6.213907481332e-01 -1.516004229280e-01 6.213907481332e-01 -1.516004229280e-01 9.055548522101e-01 -2.027128267322e-01
10.050000000 9.073614775495e-01 -2.209693546720e-01 6.020515758382e-01 -1.848115720404e-01 6.020515758382e-01 -1.848115720404e-01 9.073614775495e-01 -2.209693546720e-01
10.100000000 9.072353989035e-01 -2.406718139341e-01 5.907274166120e-01 -2.145467350025e-01 5.907274166120e-01 -2.145467350025e-01 9.072353989035e-01 -2.406718139341e-01
10.150000000 9.038387544630e-01 -2.617521306276e-01 5.865528406794e-01 -2.511251108330e-01 5.865528406794e-01 -2.511251108330e-01 9.038387544630e-01 -2.617521306276e-01
10.200000000 8.959698379859e-01 -2.827446177517e-01 5.793078930295e-01 -3.004348953156e-01 5.793078930295e-01 -3.004348953156e-01 8.959698379859e-01 -2.827446177517e-01
10.250000000 8.840837017785e-01 -3.013290652840e-01 5.571095515532e-01 -3.563226456190e-01 5.571095515532e-01 -3.563226456190e-01 8.840837017785e-01 -3.013290652840e-01
10.300000000 8.705787174809e-01 -3.165252330100e-01 5.193944228294e-01 -4.041668859123e-01 5.193944228294e-01 -4.041668859123e-01 8.705787174809e-01 -3.165252330100e-01
10.350000000 8.573671540431e-01 -3.300978962357e-01 4.794000309437e-01 -4.365395772587e-01 4.794000309437e-01 -4.365395772587e-01 8.573671540431e-01 -3.300978962357e-01
10.400000000 8.433343338804e-01 -3.445834188596e-01 4.498230124317e-01 -4.620976420212e-01 4.498230124317e-01 -4.620976420212e-01 8.433343338804e-01 -3.445834188596e-01
10.450000000 8.250232275228e-01 -3.599056570642e-01 4.287856113356e-01 -4.968606974565e-01 4.287856113356e-01 -4.968606974565e-01 8.250232275228e-01 -3.599056570642e-01
10.500000000 8.002363518309e-01 -3.719887369435e-01 3.994589507317e-01 -5.477349194528e-01 3.994589507317e-01 -5.477349194528e-01 8.002363518309e-01 -3.719887369435e-01
10.550000000 7.719589315438e-01 -3.756704834548e-01 3.453174885159e-01 -6.013381495883e-01 3.453174885159e-01 -6.013381495883e-01 7.719589315438e-01 -3.756704834548e-01
10.600000000 7.470680702403e-01 -3.709995992153e-01 2.712178192164e-01 -6.343749516914e-01 2.712178192164e-01 -6.343749516914e-01 7.470680702403e-01 -3.709995992153e-01
10.650000000 7.286724253481e-01 -3.641759356916e-01 2.004664352897e-01 -6.406398085519e-01 2.004664352897e-01 -6.406398085519e-01 7.286724253481e-01 -3.641759356916e-01
10.700000000 7.128237599670e-01 -3.602666869353e-01 1.482673510066e-01 -6.364852835826e-01 1.482673510066e-01 -6.364852835826e-01 7.128237599670e-01 -3.602666869353e-01
10.750000000 6.935275025294e-01 -3.579137713641e-01 1.086233576375e-01 -6.412880268809e-01 1.086233576375e-01 -6.412880268809e-01 6.935275025294e-01 -3.579137713641e-01
10.800000000 6.692589180376e-01 -3.506534654136e-01 6.233911262846e-02 -6.593010911627e-01 6.233911262846e-02 -6.593010911627e-01 6.692589180376e-01 -3.506534654136e-01
10.850000000 6.459509899083e-01 -3.335403784252e-01 -3.629119107618e-03 -6.746071545542e-01 -3.629119107618e-03 -6.746071545542e-01 6.459509899083e-01 -3.335403784252e-01
10.900000000 6.314270838396e-01 -3.101052943599e-01 -7.963039600487e-02 -6.678262273323e-01 -7.963039600487e-02 -6.678262273323e-01 6.314270838396e-01 -3.101052943599e-01
10.950000000 6.258679475735e-01 -2.888267374194e-01 -1.444308964883e-01 -6.397657088861e-01 -1.444308964883e-01 -6.397657088861e-01 6.258679475735e-01 -2.888267374194e-01
11.000000000 6.225345585672e-01 -2.731904751377e-01 -1.898833118724e-01 -6.078779233561e-01 -1.898833118724e-01 -6.078779233561e-01 6.225345585672e-01 -2.731904751377e-01
11.050000000 6.159230673027e-01 -2.592016004397e-01 -2.256446729226e-01 -5.863195838341e-01 -2.256446729226e-01 -5.863195838341e-01 6.159230673027e-01 -2.592016004397e-01
11.100000000 6.071949879803e-01 -2.401475273059e-01 -2.678632186405e-01 -5.742321252574e-01 -2.678632186405e-01 -5.742321252574e-01 6.071949879803e-01 -2.401475273059e-01
11.150000000 6.036161116624e-01 -2.139927430137e-01 -3.234755108150e-01 -5.568341044687e-01 -3.234755108150e-01 -5.568341044687e-01 6.036161116624e-01 -2.139927430137e-01
11.200000000 6.105918146385e-01 -1.868894662013e-01 -3.819517610533e-01 -5.214573265092e-01 -3.819517610533e-01 -5.214573265092e-01 6.105918146385e-01 -1.868894662013e-01
11.250000000 6.252340410443e-01 -1.661849853169e-01 -4.283370189124e-01 -4.719423844705e-01 -4.283370189124e-01 -4.719423844705e-01 6.252340410443e-01 -1.661849853169e-01
11.300000000 6.409568944020e-01 -1.528634414926e-01 -4.593620926547e-01 -4.210853107858e-01 -4.593620926547e-01 -4.210853107858e-01 6.409568944020e-01 -1.528634414926e-01
11.350000000 6.544138298614e-01 -1.429237127357e-01 -4.823789370454e-01 -3.767829224766e-01 -4.823789370454e-01 -3.767829224766e-01 6.544138298614e-01 -1.429237127357e-01
11.400000000 6.671783639663e-01 -1.324557221074e-01 -5.062818832532e-01 -3.375634612890e-01 -5.062818832532e-01 -3.375634612890e-01 6.671783639663e-01 -1.324557221074e-01
11.450000000 6.831437303682e-01 -1.214181367293e-01 -5.338939455208e-01 -2.959988491335e-01 -5.338939455208e-01 -2.959988491335e-01 6.831437303682e-01 -1.214181367293e-01
11.500000000 7.039308006405e-01 -1.134914268486e-01 -5.603439238452e-01 -2.467679944344e-01 -5.603439238452e-01 -2.467679944344e-01 7.039308006405e-01 -1.134914268486e-01
11.550000000 7.271659729085e-01 -1.119010722946e-01 -5.794574981676e-01 -1.915274866112e-01 -5.794574981676e-01 -1.915274866112e-01 7.271659729085e-01 -1.119010722946e-01
11.600000000 7.493278427063e-01 -1.167539911652e-01 -5.896519031076e-01 -1.353358610998e-01 -5.896519031076e-01 -1.353358610998e-01 7.493278427063e-01 -1.167539911652e-01
11.650000000 7.683736441198e-01 -1.262059258109e-01 -5.932182673237e-01 -8.162566228674e-02 -5.932182673237e-01 -8.162566228674e-02 7.683736441198e-01 -1.262059258109e-01
11.700000000 7.839413678719e-01 -1.382966743267e-01 -5.932585773653e-01 -3.097089852311e-02 -5.932585773653e-01 -3.097089852311e-02 7.839413678719e-01 -1.382966743267e-01
11.750000000 7.966238270484e-01 -1.517751248983e-01 -5.918740040529e-01 1.799067519369e-02 -5.918740040529e-01 1.799067519369e-02 7.966238270484e-01 -1.517751248983e-01
11.800000000 8.072918174105e-01 -1.663039533227e-01 -5.895787179866e-01 6.734666719502e-02 -5.895787179866e-01 6.734666719502e-02 8.072918174105e-01 -1.663039533227e-01
11.850000000 8.164906275115e-01 -1.823820346614e-01 -5.854335420466e-01 1.188754684576e-01 -5.854335420466e-01 1.188754684576e-01 8.164906275115e-01 -1.823820346614e-01
11.900000000 8.239324874101e-01 -2.009598276532e-01 -5.776240808534e-01 1.734469731145e-01 -5.776240808534e-01 1.734469731145e-01 8.239324874101e-01 -2.009598276532e-01
11.950000000 8.282427925279e-01 -2.227931462123e-01 -5.639844079105e-01 2.309055085168e-01 -5.639844079105e-01 2.309055085168e-01 8.282427925279e-01 -2.227931462123e-01
12.000000000 8.270439103736e-01 -2.475831806402e-01 -5.422590064016e-01 2.898865869787e-01 -5.422590064016e-01 2.898865869787e-01 8.270439103736e-01 -2.475831806402e-01
12.050000000 8.177938630099e-01 -2.728684364186e-01 -5.109057646084e-01 3.472317890044e-01 -5.109057646084e-01 3.472317890044e-01 8.177938630099e-01 -2.728684364186e-01
12.100000000 8.002676888822e-01 -2.937420421067e-01 -4.713831934027e-01 3.984837308199e-01 -4.713831934027e-01 3.984837308199e-01 8.002676888822e-01 -2.937420421067e-01
12.150000000 7.790715664533e-01 -3.062638041530e-01 -4.293731580435e-01 4.421173956222e-01 -4.293731580435e-01 4.421173956222e-01 7.790715664533e-01 -3.062638041530e-01
12.200000000 7.602242992842e-01 -3.126930059714e-01 -3.892602304756e-01 4.836872222782e-01 -3.892602304756e-01 4.836872222782e-01 7.602242992842e-01 -3.126930059714e-01
12.250000000 7.437545402617e-01 -3.192602335938e-01 -3.467672855530e-01 5.307758446475e-01 -3.467672855530e-01 5.307758446475e-01 7.437545402617e-01 -3.192602335938e-01
12.300000000 7.233520563048e-01 -3.280602474926e-01 -2.907398387910e-01 5.834531905985e-01 -2.907398387910e-01 5.834531905985e-01 7.233520563048e-01 -3.280602474926e-01
12.350000000 6.932024620717e-01 -3.327496744125e-01 -2.123615334217e-01 6.296842077293e-01 -2.123615334217e-01 6.296842077293e-01 6.932024620717e-01 -3.327496744125e-01
12.400000000 6.572282723029e-01 -3.219121381269e-01 -1.185229798055e-01 6.504786330739e-01 -1.185229798055e-01 6.504786330739e-01 6.572282723029e-01 -3.219121381269e-01
12.450000000 6.309980171729e-01 -2.934925398626e-01 -3.440904295135e-02 6.430311236238e-01 -3.440904295135e-02 6.430311236238e-01 6.309980171729e-01 -2.934925398626e-01
12.500000000 6.232147627953e-01 -2.621214566520e-01 2.785980701136e-02 6.323106597578e-01 2.785980701136e-02 6.323106597578e-01 6.232147627953e-01 -2.621214566520e-01
12.550000000 6.247811191767e-01 -2.399632265340e-01 8.815929598776e-02 6.375901638649e-01 8.815929598776e-02 6.375901638649e-01 6.247811191767e-01 -2.399632265340e-01
12.600000000 6.235865579496e-01 -2.241303000620e-01 1.728935697146e-01 6.482108302863e-01 1.728935697146e-01 6.482108302863e-01 6.235865579496e-01 -2.241303000620e-01
12.650000000 6.177681601942e-01 -2.032212318609e-01 2.870043507232e-01 6.311789077707e-01 2.870043507232e-01 6.311789077707e-01 6.177681601942e-01 -2.032212318609e-01
12.700000000 6.189127608820e-01 -1.705943442973e-01 3.970983011286e-01 5.601393868723e-01 3.970983011286e-01 5.601393868723e-01 6.189127608820e-01 -1.705943442973e-01
12.750000000 6.393316614252e-01 -1.367132459584e-01 4.582773579961e-01 4.583982020111e-01 4.582773579961e-01 4.583982020111e-01 6.393316614252e-01 -1.367132459584e-01
12.800000000 6.737261977797e-01 -1.174245571687e-01 4.762299497359e-01 3.759209052777e-01 4.762299497359e-01 3.759209052777e-01 6.737261977797e-01 -1.174245571687e-01
12.850000000 7.085023938516e-01 -1.150342161163e-01 4.910907357232e-01 3.244176726844e-01 4.910907357232e-01 3.244176726844e-01 7.085023938516e-01 -1.150342161163e-01
12.900000000 7.366227247093e-01 -1.231883846940e-01 5.258321267968e-01 2.811730512701e-01 5.258321267968e-01 2.811730512701e-01 7.366227247093e-01 -1.231883846940e-01
12.950000000 7.573314362558e-01 -1.358891140343e-01 5.763922661490e-01 2.193962008509e-01 5.763922661490e-01 2.193962008509e-01 7.573314362558e-01 -1.358891140343e-01
13.000000000 7.724783441200e-01 -1.495836913665e-01 6.197047968097e-01 1.254903247641e-01 6.197047968097e-01 1.254903247641e-01 7.724783441200e-01 -1.495836913665e-01
13.050000000 7.847591914138e-01 -1.631444082179e-01 6.282923172985e-01 1.044120207358e-02 6.282923172985e-01 1.044120207358e-02 7.847591914138e-01 -1.631444082179e-01
13.100000000 7.962937328017e-01 -1.779218804924e-01 5.945736733181e-01 -9.333754636198e-02 5.945736733181e-01 -9.333754636198e-02 7.962937328017e-01 -1.779218804924e-01
13.150000000 8.069510113590e-01 -1.969738506152e-01 5.433370397916e-01 -1.589590698574e-01 5.433370397916e-01 -1.589590698574e-01 8.069510113590e-01 -1.969738506152e-01
13.200000000 8.132786137679e-01 -2.235652105208e-01 5.152873395731e-01 -1.901360736733e-01 5.152873395731e-01 -1.901360736733e-01 8.132786137679e-01 -2.235652105208e-01
13.250000000 8.067645506607e-01 -2.593572628279e-01 5.434605541645e-01 -2.276929439560e-01 5.434605541645e-01 -2.276929439560e-01 8.067645506607e-01 -2.593572628279e-01
13.300000000 7.701627512483e-01 -2.961789020179e-01 6.196273050328e-01 -3.601569831940e-01 6.196273050328e-01 -3.601569831940e-01 7.701627512483e-01 -2.961789020179e-01
13.350000000 6.958046631073e-01 -2.901063537330e-01 5.791733412100e-01 -6.702968254322e-01 5.791733412100e-01 -6.702968254322e-01 6.958046631073e-01 -2.901063537330e-01
13.400000000 6.611232214931e-01 -2.083202207962e-01 2.161673582350e-01 -8.931944428994e-01 2.161673582350e-01 -8.931944428994e-01 6.611232214931e-01 -2.083202207962e-01
13.450000000 7.068846796835e-01 -1.444824798254e-01 -1.453395228240e-01 -7.829299121010e-01 -1.453395228240e-01 -7.829299121010e-01 7.068846796835e-01 -1.444824798254e-01
13.500000000 7.654863857656e-01 -1.313453994842e-01 -3.153225629605e-01 -5.749472623552e-01 -3.153225629605e-01 -5.749472623552e-01 7.654863857656e-01 -1.313453994842e-01
13.550000000 8.119471794570e-01 -1.427084645276e-01 -3.755813722846e-01 -3.936392479623e-01 -3.755813722846e-01 -3.936392479623e-01 8.119471794570e-01 -1.427084645276e-01
13.600000000 8.479837068138e-01 -1.645978349357e-01 -3.860848582383e-01 -2.464122539538e-01 -3.860848582383e-01 -2.464122539538e-01 8.479837068138e-01 -1.645978349357e-01
13.650000000 8.770275358112e-01 -1.937106494303e-01 -3.676806112823e-01 -1.226711125106e-01 -3.676806112823e-01 -1.226711125106e-01 8.770275358112e-01 -1.937106494303e-01
13.700000000 8.994929765897e-01 -2.311212064385e-01 -3.228869601164e-01 -1.675997591557e-02 -3.228869601164e-01 -1.675997591557e-02 8.994929765897e-01 -2.311212064385e-01
13.750000000 9.106679032711e-01 -2.786321434161e-01 -2.468788326572e-01 6.467926505991e-02 -2.468788326572e-01 6.467926505991e-02 9.106679032711e-01 -2.786321434161e-01
13.800000000 8.996398618339e-01 -3.311795426923e-01 -1.451576860421e-01 9.600560858655e-02 -1.451576860421e-01 9.600560858655e-02 8.996398618339e-01 -3.311795426923e-01
13.850000000 8.633419140110e-01 -3.666727725647e-01 -6.559949927703e-02 5.764037885453e-02 -6.559949927703e-02 5.764037885453e-02 8.633419140110e-01 -3.666727725647e-01
13.900000000 8.293508573939e-01 -3.703297550900e-01 -5.932992566162e-02 2.422296481090e-03 -5.932992566162e-02 2.422296481090e-03 8.293508573939e-01 -3.703297550900e-01
13.950000000 8.194120365753e-01 -3.652800900589e-01 -8.971414568590e-02 -5.325044066683e-03 -8.971414568590e-02 -5.325044066683e-03 8.194120365753e-01 -3.652800900589e-01
14.000000000 8.224002659867e-01 -3.734681747372e-01 -1.014485062565e-01 2.580138615075e-02 -1.014485062565e-01 2.580138615075e-02 8.224002659867e-01 -3.734681747372e-01
14.050000000 8.206428270654e-01 -3.967954760069e-01 -7.812059179088e-02 6.083781955048e-02 -7.812059179088e-02 6.083781955048e-02 8.206428270654e-01 -3.967954760069e-01
14.100000000 8.021045282110e-01 -4.247653413135e-01 -3.109370194367e-02 6.897359618086e-02 -3.109370194367e-02 6.897359618086e-02 8.021045282110e-01 -4.247653413135e-01
14.150000000 7.681632465225e-01 -4.389696169592e-01 4.891302417246e-03 3.851782306818e-02 4.891302417246e-03 3.851782306818e-02 7.681632465225e-01 -4.389696169592e-01
14.200000000 7.390333071606e-01 -4.315409517201e-01 -2.079379408456e-04 -8.313135076203e-04 -2.079379408456e-04 -8.313135076203e-04 7.390333071606e-01 -4.315409517201e-01
14.250000000 7.292946699383e-01 -4.189423142814e-01 -2.937462776929e-02 -1.044377976412e-02 -2.937462776929e-02 -1.044377976412e-02 7.292946699383e-01 -4.189423142814e-01
14.300000000 7.308975690918e-01 -4.181904986721e-01 -4.701158454523e-02 9.609738433589e-03 -4.701158454523e-02 9.609738433589e-03 7.308975690918e-01 -4.181904986721e-01
14.350000000 7.288405449360e-01 -4.310674109960e-01 -3.797960072173e-02 3.576651048913e-02 -3.797960072173e-02 3.576651048913e-02 7.288405449360e-01 -4.310674109960e-01
14.400000000 7.132979105444e-01 -4.482212003318e-01 -9.195304543004e-03 4.442919458499e-02 -9.195304543004e-03 4.442919458499e-02 7.132979105444e-01 -4.482212003318e-01
14.450000000 6.858398227648e-01 -4.552406482652e-01 1.546612655997e-02 2.569224674359e-02 1.546612655997e-02 2.569224674359e-02 6.858398227648e-01 -4.552406482652e-01
14.500000000 6.614064043811e-01 -4.458208564102e-01 1.325335937150e-02 -3.135919753436e-03 1.325335937150e-02 -3.135919753436e-03 6.614064043811e-01 -4.458208564102e-01
14.550000000 6.520659805845e-01 -4.313771822939e-01 -9.389138111170e-03 -1.378033421579e-02 -9.389138111170e-03 -1.378033421579e-02 6.520659805845e-01 -4.313771822939e-01
14.600000000 6.529857273278e-01 -4.261136603027e-01 -2.712008021903e-02 -6.855417899827e-04 -2.712008021903e-02 -6.855417899827e-04 6.529857273278e-01 -4.261136603027e-01
14.650000000 6.517324930810e-01 -4.326602471643e-01 -2.487441617936e-02 2.048017414164e-02 -2.487441617936e-02 2.048017414164e-02 6.517324930810e-01 -4.326602471643e-01
14.700000000 6.396842429393e-01 -4.435037736311e-01 -5.329923671690e-03 3.056870821968e-02 -5.329923671690e-03 3.056870821968e-02 6.396842429393e-01 -4.435037736311e-01
14.750000000 6.177010323920e-01 -4.469600179960e-01 1.456097543176e-02 1.969008216737e-02 1.456097543176e-02 1.969008216737e-02 6.177010323920e-01 -4.469600179960e-01
14.800000000 5.971446093709e-01 -4.372836240715e-01 1.603604568653e-02 -2.350279362599e-03 1.603604568653e-02 -2.350279362599e-03 5.971446093709e-01 -4.372836240715e-01
14.850000000 5.884982349229e-01 -4.224144776856e-01 -6.042688248127e-04 -1.385194669234e-02 -6.042688248127e-04 -1.385194669234e-02 5.884982349229e-01 -4.224144776856e-01
14.900000000 5.893301703389e-01 -4.144151358209e-01 -1.716845821240e-02 -6.130579472081e-03 -1.716845821240e-02 -6.130579472081e-03 5.893301703389e-01 -4.144151358209e-01
14.950000000 5.894156908932e-01 -4.167328595931e-01 -1.907364334085e-02 1.104149045697e-02 -1.907364334085e-02 1.104149045697e-02 5.894156908932e-01 -4.167328595931e-01
15.000000000 5.808854624335e-01 -4.236492068335e-01 -5.657417865481e-03 2.194716253829e-02 -5.657417865481e-03 2.194716253829e-02 5.808854624335e-01 -4.236492068335e-01
15.050000000 5.636558494309e-01 -4.254934827454e-01 1.114437874475e-02 1.657968796253e-02 1.114437874475e-02 1.657968796253e-02 5.636558494309e-01 -4.254934827454e-01
15.100000000 5.463341688515e-01 -4.166830996020e-01 1.554767390936e-02 -3.617444900339e-04 1.554767390936e-02 -3.617444900339e-04 5.463341688515e-01 -4.166830996020e-01
15.150000000 5.382052297765e-01 -4.023983643293e-01 4.005105348459e-03 -1.225407873669e-02 4.005105348459e-03 -1.225407873669e-02 5.382052297765e-01 -4.023983643293e-01
15.200000000 5.388263390241e-01 -3.928344974915e-01 -1.091885328581e-02 -8.811418451426e-03 -1.091885328581e-02 -8.811418451426e-03 5.388263390241e-01 -3.928344974915e-01
15.250000000 5.400067967528e-01 -3.921702588432e-01 -1.558736256440e-02 4.842638427588e-03 -1.558736256440e-02 4.842638427588e-03 5.400067967528e-01 -3.921702588432e-01
15.300000000 5.344569363466e-01 -3.963720089658e-01 -6.780290677318e-03 1.595258854614e-02 -6.780290677318e-03 1.595258854614e-02 5.344569363466e-01 -3.963720089658e-01
15.350000000 5.211929452453e-01 -3.973844420726e-01 7.451540738793e-03 1.457727354913e-02 7.451540738793e-03 1.457727354913e-02 5.211929452453e-01 -3.973844420726e-01
15.400000000 5.066467807360e-01 -3.897464915195e-01 1.386898940944e-02 1.814639320643e-03 1.386898940944e-02 1.814639320643e-03 5.066467807360e-01 -3.897464915195e-01
15.450000000 4.990214373502e-01 -3.764988130048e-01 6.593584152300e-03 -9.913353056543e-03 6.593584152300e-03 -9.913353056543e-03 4.990214373502e-01 -3.764988130048e-01
15.500000000 4.993907744040e-01 -3.661343917301e-01 -6.393343694698e-03 -9.838553296112e-03 -6.393343694698e-03 -9.838553296112e-03 4.993907744040e-01 -3.661343917301e-01
15.550000000 5.014089763655e-01 -3.633448382646e-01 -1.286000614798e-02 5.931986291423e-04 -1.286000614798e-02 5.931986291423e-04 5.014089763655e-01 -3.633448382646e-01
15.600000000 4.983301605824e-01 -3.656055229387e-01 -7.734089338317e-03 1.137633240222e-02 -7.734089338317e-03 1.137633240222e-02 4.983301605824e-01 -3.656055229387e-01
15.650000000 4.883839322197e-01 -3.662278208088e-01 4.090906358854e-03 1.291760897569e-02 4.090906358854e-03 1.291760897569e-02 4.883839322197e-01 -3.662278208088e-01
15.700000000 4.762264659963e-01 -3.598924406571e-01 1.171087650422e-02 3.737310040161e-03 1.171087650422e-02 3.737310040161e-03 4.762264659963e-01 -3.598924406571e-01
15.750000000 4.690443522727e-01 -3.479507501482e-01 7.974171889116e-03 -7.320949781632e-03 7.974171889116e-03 -7.320949781632e-03 4.690443522727e-01 -3.479507501482e-01
15.800000000 4.690496420223e-01 -3.373161286391e-01 -2.883342392756e-03 -9.816991334728e-03 -2.883342392756e-03 -9.816991334728e-03 4.690496420223e-01 -3.373161286391e-01
15.850000000 4.715845092271e-01 -3.329739989296e-01 -1.038866064978e-02 -2.351855857846e-03 -1.038866064978e-02 -2.351855857846e-03 4.715845092271e-01 -3.329739989296e-01
15.900000000 4.704797829657e-01 -3.337431062798e-01 -8.253720348966e-03 7.670300085158e-03 -8.253720348966e-03 7.670300085158e-03 4.704797829657e-01 -3.337431062798e-01
15.950000000 4.633132446689e-01 -3.341585795302e-01 1.236610770519e-03 1.129082008345e-02 1.236610770519e-03 1.129082008345e-02 4.633132446689e-01 -3.341585795302e-01
16.000000000 4.532498087616e-01 -3.291079762383e-01 9.372825481520e-03 5.221195131065e-03 9.372825481520e-03 5.221195131065e-03 4.532498087616e-01 -3.291079762383e-01
16.050000000 4.464786426259e-01 -3.186126188901e-01 8.510725256899e-03 -4.750762926001e-03 8.510725256899e-03 -4.750762926001e-03 4.464786426259e-01 -3.186126188901e-01
16.100000000 4.460099183861e-01 -3.080987128976e-01 -1.160697680222e-04 -9.097785722004e-03 -1.160697680222e-04 -9.097785722004e-03 4.460099183861e-01 -3.080987128976e-01
16.150000000 4.487264238039e-01 -3.026107927702e-01 -8.027688752776e-03 -4.331838980230e-03 -8.027688752776e-03 -4.331838980230e-03 4.487264238039e-01 -3.026107927702e-01
16.200000000 4.491154977084e-01 -3.021351693245e-01 -8.298557046380e-03 4.588561494267e-03 -8.298557046380e-03 4.588561494267e-03 4.491154977084e-01 -3.021351693245e-01
16.250000000 4.442626639593e-01 -3.023430011316e-01 -1.066519662926e-03 9.597307658422e-03 -1.066519662926e-03 9.597307658422e-03 4.442626639593e-01 -3.023430011316e-01
16.300000000 4.360759825144e-01 -2.984189338922e-01 7.022889082625e-03 6.205691172345e-03 7.022889082625e-03 6.205691172345e-03 4.360759825144e-01 -2.984189338922e-01
16.350000000 4.297599469649e-01 -2.893764311137e-01 8.412094681068e-03 -2.372356646800e-03 8.412094681068e-03 -2.372356646800e-03 4.297599469649e-01 -2.893764311137e-01
16.400000000 4.288030116593e-01 -2.792671875107e-01 2.022300944083e-03 -7.916305730066e-03 2.022300944083e-03 -7.916305730066e-03 4.288030116593e-01 -2.792671875107e-01
16.450000000 4.314480823880e-01 -2.729675240462e-01 -5.764470314563e-03 -5.548701708985e-03 -5.764470314563e-03 -5.548701708985e-03 4.314480823880e-01 -2.729675240462e-01
16.500000000 4.329191571902e-01 -2.714306390025e-01 -7.909968144691e-03 2.017601960527e-03 -7.909968144691e-03 2.017601960527e-03 4.329191571902e-01 -2.714306390025e-01
16.550000000 4.299748832263e-01 -2.713888941271e-01 -2.827061108641e-03 7.829781764606e-03 -2.827061108641e-03 7.829781764606e-03 4.299748832263e-01 -2.713888941271e-01
16.600000000 4.234660470639e-01 -2.684043060357e-01 4.767508712274e-03 6.697757946264e-03 4.767508712274e-03 6.697757946264e-03 4.234660470639e-01 -2.684043060357e-01
16.650000000 4.176415640805e-01 -2.607501631436e-01 7.825649392754e-03 -2.889851170402e-04 7.825649392754e-03 -2.889851170402e-04 4.176415640805e-01 -2.607501631436e-01
16.700000000 4.162040655716e-01 -2.512312253006e-01 3.587372108338e-03 -6.446120515003e-03 3.587372108338e-03 -6.446120515003e-03 4.162040655716e-01 -2.512312253006e-01
16.750000000 4.185667993665e-01 -2.443652094515e-01 -3.640524059028e-03 -6.135781413185e-03 -3.640524059028e-03 -6.135781413185e-03 4.185667993665e-01 -2.443652094515e-01
16.800000000 4.207588484496e-01 -2.418674556868e-01 -7.160943123993e-03 -8.474241532056e-05 -7.160943123993e-03 -8.474241532056e-05 4.207588484496e-01 -2.418674556868e-01
16.850000000 4.193790624209e-01 -2.414645432820e-01 -4.068316897195e-03 6.032598380134e-03 -4.068316897195e-03 6.032598380134e-03 4.193790624209e-01 -2.414645432820e-01
16.900000000 4.144005847915e-01 -2.391745644710e-01 2.692938939871e-03 6.742536849983e-03 2.692938939871e-03 6.742536849983e-03 4.144005847915e-01 -2.391745644710e-01
16.950000000 4.091566000227e-01 -2.327699504235e-01 6.881217200447e-03 1.436349115870e-03 6.881217200447e-03 1.436349115870e-03 4.091566000227e-01 -2.327699504235e-01
17.000000000 4.073349452792e-01 -2.239588912603e-01 4.625551580002e-03 -4.828524858829e-03 4.625551580002e-03 -4.828524858829e-03 4.073349452792e-01 -2.239588912603e-01
17.050000000 4.093031939354e-01 -2.167484599327e-01 -1.706575107283e-03 -6.201888883105e-03 -1.706575107283e-03 -6.201888883105e-03 4.093031939354e-01 -2.167484599327e-01
17.100000000 4.119300931344e-01 -2.133971078561e-01 -6.131872765351e-03 -1.741686883832e-03 -6.131872765351e-03 -1.741686883832e-03 4.119300931344e-01 -2.133971078561e-01
17.150000000 4.118161292866e-01 -2.125412410110e-01 -4.825141824922e-03 4.259798603420e-03 -4.825141824922e-03 4.259798603420e-03 4.118161292866e-01 -2.125412410110e-01
17.200000000 4.082264150023e-01 -2.107142245106e-01 8.627576256652e-04 6.398713544571e-03 8.627576256652e-04 6.398713544571e-03 4.082264150023e-01 -2.107142245106e-01
17.250000000 4.036385388170e-01 -2.053882379669e-01 5.692928350260e-03 2.766425383648e-03 5.692928350260e-03 2.766425383648e-03 4.036385388170e-01 -2.053882379669e-01
17.300000000 4.015521338093e-01 -1.973368909408e-01 5.180691544117e-03 -3.186789569025e-03 5.180691544117e-03 -3.186789569025e-03 4.015521338093e-01 -1.973368909408e-01
17.350000000 4.030728359558e-01 -1.899585403324e-01 -2.047303255073e-05 -5.848677197522e-03 -2.047303255073e-05 -5.848677197522e-03 4.030728359558e-01 -1.899585403324e-01
17.400000000 4.059059770763e-01 -1.858459086944e-01 -4.916711711426e-03 -2.968510240712e-03 -4.916711711426e-03 -2.968510240712e-03 4.059059770763e-01 -1.858459086944e-01
17.450000000 4.067976588705e-01 -1.844465106320e-01 -5.149213822082e-03 2.575356393638e-03 -5.149213822082e-03 2.575356393638e-03 4.067976588705e-01 -1.844465106320e-01
17.500000000 4.044638657719e-01 -1.828494089640e-01 -6.808437519653e-04 5.743261105621e-03 -6.808437519653e-04 5.743261105621e-03 4.044638657719e-01 -1.828494089640e-01
17.550000000 4.005997872378e-01 -1.783941494226e-01 4.363955031177e-03 3.696528498351e-03 4.363955031177e-03 3.696528498351e-03 4.005997872378e-01 -1.783941494226e-01
17.600000000 3.983901368183e-01 -1.710852824306e-01 5.306321850193e-03 -1.616867346559e-03 5.306321850193e-03 -1.616867346559e-03 3.983901368183e-01 -1.710852824306e-01
17.650000000 3.994673535923e-01 -1.636628010825e-01 1.373281448630e-03 -5.167769827211e-03 1.373281448630e-03 -5.167769827211e-03 3.994673535923e-01 -1.636628010825e-01
17.700000000 4.023294418715e-01 -1.588571836467e-01 -3.603181158936e-03 -3.778669258014e-03 -3.603181158936e-03 -3.778669258014e-03 4.023294418715e-01 -1.588571836467e-01
17.750000000 4.039892670103e-01 -1.568015647357e-01 -5.092967189214e-03 1.043479249858e-03 -5.092967189214e-03 1.043479249858e-03 4.039892670103e-01 -1.568015647357e-01
17.800000000 4.027738083774e-01 -1.551451874481e-01 -1.902463035111e-03 4.858872412922e-03 -1.902463035111e-03 4.858872412922e-03 4.027738083774e-01 -1.551451874481e-01
17.850000000 3.997064559832e-01 -1.512218130574e-01 2.997249198619e-03 4.237518150337e-03 2.997249198619e-03 4.237518150337e-03 3.997064559832e-01 -1.512218130574e-01
17.900000000 3.976143272454e-01 -1.444406102060e-01 5.070422415063e-03 -2.058784033887e-04 5.070422415063e-03 -2.058784033887e-04 3.976143272454e-01 -1.444406102060e-01
17.950000000 3.984943077277e-01 -1.369251314343e-01 2.442209083292e-03 -4.258522090590e-03 2.442209083292e-03 -4.258522090590e-03 3.984943077277e-01 -1.369251314343e-01
18.000000000 4.015543463530e-01 -1.314406518464e-01 -2.278453601443e-03 -4.197493874536e-03 -2.278453601443e-03 -4.197493874536e-03 4.015543463530e-01 -1.314406518464e-01
18.050000000 4.041205590232e-01 -1.287263339258e-01 -4.715368785509e-03 -2.833025701022e-04 -4.715368785509e-03 -2.833025701022e-04 4.041205590232e-01 -1.287263339258e-01
18.100000000 4.042022168244e-01 -1.270099907191e-01 -2.785549592377e-03 3.819338948509e-03 -2.785549592377e-03 3.819338948509e-03 4.042022168244e-01 -1.270099907191e-01
18.150000000 4.021556751808e-01 -1.237099699885e-01 1.669528686615e-03 4.411972272222e-03 1.669528686615e-03 4.411972272222e-03 4.021556751808e-01 -1.237099699885e-01
18.200000000 4.003282416026e-01 -1.177043047517e-01 4.536552905908e-03 9.893607013882e-04 4.536552905908e-03 9.893607013882e-04 4.003282416026e-01 -1.177043047517e-01
18.250000000 4.009184844098e-01 -1.103891292866e-01 3.175857953817e-03 -3.206909640930e-03 3.175857953817e-03 -3.206909640930e-03 4.009184844098e-01 -1.103891292866e-01
18.300000000 4.038585070893e-01 -1.043249235665e-01 -1.017233059612e-03 -4.267000038689e-03 -1.017233059612e-03 -4.267000038689e-03 4.038585070893e-01 -1.043249235665e-01
18.350000000 4.069985728151e-01 -1.007188587659e-01 -4.094348507370e-03 -1.366905275615e-03 -4.094348507370e-03 -1.366905275615e-03 4.069985728151e-01 -1.007188587659e-01
18.400000000 4.082721987382e-01 -9.842855006728e-02 -3.337786563322e-03 2.715858608197e-03 -3.337786563322e-03 2.715858608197e-03 4.082721987382e-01 -9.842855006728e-02
18.450000000 4.075269046864e-01 -9.515732026878e-02 4.632325439339e-04 4.272879109427e-03 4.632325439339e-04 4.272879109427e-03 4.075269046864e-01 -9.515732026878e-02
18.500000000 4.066085335817e-01 -8.953070038341e-02 3.791752309644e-03 1.918143252193e-03 3.791752309644e-03 1.918143252193e-03 4.066085335817e-01 -8.953070038341e-02
18.550000000 4.076836097397e-01 -8.238802195940e-02 3.570181084465e-03 -2.108216926136e-03 3.570181084465e-03 -2.108216926136e-03 4.076836097397e-01 -8.238802195940e-02
18.600000000 4.111609851703e-01 -7.600386125663e-02 1.059834635105e-04 -4.025142693698e-03 1.059834635105e-04 -4.025142693698e-03 4.111609851703e-01 -7.600386125663e-02
18.650000000 4.153636439906e-01 -7.185942433560e-02 -3.291074577848e-03 -2.169719638598e-03 -3.291074577848e-03 -2.169719638598e-03 4.153636439906e-01 -7.185942433560e-02
18.700000000 4.182514303124e-01 -6.934326416679e-02 -3.561198788753e-03 1.613943124266e-03 -3.561198788753e-03 1.613943124266e-03 4.182514303124e-01 -6.934326416679e-02
18.750000000 4.192673017858e-01 -6.649109098322e-02 -5.684386316389e-04 3.859337336162e-03 -5.684386316389e-04 3.859337336162e-03 4.192673017858e-01 -6.649109098322e-02
18.800000000 4.197449352005e-01 -6.180387346699e-02 2.901987592295e-03 2.557803099059e-03 2.901987592295e-03 2.557803099059e-03 4.197449352005e-01 -6.180387346699e-02
18.850000000 4.216671750050e-01 -5.562486053379e-02 3.645001290643e-03 -1.031348400350e-03 3.645001290643e-03 -1.031348400350e-03 4.216671750050e-01 -5.562486053379e-02
18.900000000 4.257700352715e-01 -4.983111204446e-02 1.048129513144e-03 -3.527171110051e-03 1.048129513144e-03 -3.527171110051e-03 4.257700352715e-01 -4.983111204446e-02
18.950000000 4.308557487201e-01 -4.599969095392e-02 -2.372756330677e-03 -2.690203785290e-03 -2.372756330677e-03 -2.690203785290e-03 4.308557487201e-01 -4.599969095392e-02
19.000000000 4.350274657892e-01 -4.396644843896e-02 -3.492962515113e-03 5.687255329503e-04 -3.492962515113e-03 5.687255329503e-04 4.350274657892e-01 -4.396644843896e-02
19.050000000 4.374233750120e-01 -4.212933571057e-02 -1.397815619337e-03 3.234668084116e-03 -1.397815619337e-03 3.234668084116e-03 4.374233750120e-01 -4.212933571057e-02
19.100000000 4.388787905895e-01 -3.894116247064e-02 1.940589528586e-03 2.916689931132e-03 1.940589528586e-03 2.916689931132e-03 4.388787905895e-01 -3.894116247064e-02
19.150000000 4.411168539985e-01 -3.427859322504e-02 3.446500899013e-03 -3.915347991800e-05 3.446500899013e-03 -3.915347991800e-05 4.411168539985e-01 -3.427859322504e-02
19.200000000 4.451263812708e-01 -2.953487037034e-02 1.778453744168e-03 -2.847031115050e-03 1.778453744168e-03 -2.847031115050e-03 4.451263812708e-01 -2.953487037034e-02
19.250000000 4.502292720549e-01 -2.624583959138e-02 -1.419092151332e-03 -2.942352166759e-03 -1.419092151332e-03 -2.942352166759e-03 4.502292720549e-01 -2.624583959138e-02
19.300000000 4.548069722627e-01 -2.462937074229e-02 -3.188923917461e-03 -3.593368471866e-04 -3.188923917461e-03 -3.593368471866e-04 4.548069722627e-01 -2.462937074229e-02
19.350000000 4.578309840829e-01 -2.347945379310e-02 -2.001913880429e-03 2.480629787143e-03 -2.001913880429e-03 2.480629787143e-03 4.578309840829e-01 -2.347945379310e-02
19.400000000 4.597242908833e-01 -2.130376563978e-02 9.926005787997e-04 3.016193632243e-03 9.926005787997e-04 3.016193632243e-03 4.597242908833e-01 -2.130376563978e-02
19.450000000 4.619460540452e-01 -1.763523921463e-02 3.034835123742e-03 8.033055204281e-04 3.034835123742e-03 8.033055204281e-04 4.619460540452e-01 -1.763523921463e-02
19.500000000 4.656589863812e-01 -1.343880644805e-02 2.269181143557e-03 -2.066835029054e-03 2.269181143557e-03 -2.066835029054e-03 4.656589863812e-01 -1.343880644805e-02
19.550000000 4.706537965063e-01 -1.017046720444e-02 -5.116414490465e-04 -2.941490883263e-03 -5.116414490465e-04 -2.941490883263e-03 4.706537965063e-01 -1.017046720444e-02
19.600000000 4.756282358280e-01 -8.382327259533e-03 -2.701279042516e-03 -1.110053765811e-03 -2.701279042516e-03 -1.110053765811e-03 4.756282358280e-01 -8.382327259533e-03
19.650000000 4.794715335605e-01 -7.285943664155e-03 -2.356328132168e-03 1.671388867287e-03 -2.356328132168e-03 1.671388867287e-03 4.794715335605e-01 -7.285943664155e-03
19.700000000 4.822492481946e-01 -5.549011219635e-03 1.338893232503e-04 2.873340666459e-03 1.338893232503e-04 2.873340666459e-03 4.822492481946e-01 -5.549011219635e-03
19.750000000 4.851094827585e-01 -2.500237458154e-03 2.462692673858e-03 1.440113396984e-03 2.462692673858e-03 1.440113396984e-03 4.851094827585e-01 -2.500237458154e-03
19.800000000 4.892395111862e-01 1.265027556028e-03 2.500140676057e-03 -1.257480300310e-03 2.500140676057e-03 -1.257480300310e-03 4.892395111862e-01 1.265027556028e-03
19.850000000 4.947728871821e-01 4.452545479673e-03 2.834195531150e-04 -2.706350634861e-03 2.834195531150e-04 -2.706350634861e-03 4.947728871821e-01 4.452545479673e-03
19.900000000 5.007292270069e-01 6.301476464623e-03 -2.078202640899e-03 -1.641149983051e-03 -2.078202640899e-03 -1.641149983051e-03 5.007292270069e-01 6.301476464623e-03
19.950000000 5.060144021802e-01 7.225212332119e-03 -2.453070393607e-03 8.680165344064e-04 -2.453070393607e-03 8.680165344064e-04 5.060144021802e-01 7.225212332119e-03
20.000000000 5.104205958453e-01 8.325102519859e-03 -5.804476520992e-04 2.515411988366e-03 -5.804476520992e-04 2.515411988366e-03 5.104205958453e-01 8.325102519859e-03
20.050000000 5.147672845444e-01 1.035105587430e-02 1.783472254346e-03 1.839743034448e-03 1.783472254346e-03 1.839743034448e-03 5.147672845444e-01 1.035105587430e-02
20.100000000 5.201397812965e-01 1.301261882285e-02 2.473424800390e-03 -4.797909205144e-04 2.473424800390e-03 -4.797909205144e-04 5.201397812965e-01 1.301261882285e-02
20.150000000 5.268904905090e-01 1.524540274084e-02 9.188496804045e-04 -2.269294782840e-03 9.188496804045e-04 -2.269294782840e-03 5.268904905090e-01 1.524540274084e-02
20.200000000 5.343569098544e-01 1.620356146930e-02 -1.368168835378e-03 -1.931850828482e-03 -1.368168835378e-03 -1.931850828482e-03 5.343569098544e-01 1.620356146930e-02
20.250000000 5.415556957648e-01 1.597259449644e-02 -2.299549403117e-03 1.196926058103e-04 -2.299549403117e-03 1.196926058103e-04 5.415556957648e-01 1.597259449644e-02
20.300000000 5.480863034742e-01 1.535423479070e-02 -1.112039382597e-03 1.974038002849e-03 -1.112039382597e-03 1.974038002849e-03 5.480863034742e-01 1.535423479070e-02
20.350000000 5.544187333868e-01 1.505256970061e-02 1.046188622109e-03 1.984860651804e-03 1.046188622109e-03 1.984860651804e-03 5.544187333868e-01 1.505256970061e-02
20.400000000 5.614051754555e-01 1.501063684204e-02 2.201147048589e-03 2.137890338133e-04 2.201147048589e-03 2.137890338133e-04 5.614051754555e-01 1.501063684204e-02
20.450000000 5.694715792243e-01 1.444990256769e-02 1.359339616349e-03 -1.669346007702e-03 1.359339616349e-03 -1.669346007702e-03 5.694715792243e-01 1.444990256769e-02
20.500000000 5.782312341416e-01 1.256573867091e-02 -6.190164490731e-04 -1.978064440116e-03 -6.190164490731e-04 -1.978064440116e-03 5.782312341416e-01 1.256573867091e-02
20.550000000 5.868667307564e-01 9.183837893062e-03 -1.918683509120e-03 -5.386363949299e-04 -1.918683509120e-03 -5.386363949299e-04 5.868667307564e-01 9.183837893062e-03
20.600000000 5.948287776800e-01 4.771810088512e-03 -1.447859851405e-03 1.283104290235e-03 -1.447859851405e-03 1.283104290235e-03 5.948287776800e-01 4.771810088512e-03
20.650000000 6.021869972218e-01 -8.636130027389e-05 2.838724018966e-04 1.881062424010e-03 2.838724018966e-04 1.881062424010e-03 6.021869972218e-01 -8.636130027389e-05
20.700000000 6.094142354539e-01 -5.227761433630e-03 1.704788307640e-03 7.963560253876e-04 1.704788307640e-03 7.963560253876e-04 6.094142354539e-01 -5.227761433630e-03
20.750000000 6.168533271025e-01 -1.103301668201e-02 1.593969404738e-03 -9.427912602402e-04 1.593969404738e-03 -9.427912602402e-04 6.168533271025e-01 -1.103301668201e-02
20.800000000 6.243330851123e-01 -1.806822650315e-02 1.313137405120e-04 -1.798358064758e-03 1.313137405120e-04 -1.798358064758e-03 6.243330851123e-01 -1.806822650315e-02
20.850000000 6.312497920285e-01 -2.659504505892e-02 -1.356019963069e-03 -1.093604763993e-03 -1.356019963069e-03 -1.093604763993e-03 6.312497920285e-01 -2.659504505892e-02
20.900000000 6.369791249106e-01 -3.637951207195e-02 -1.614363076802e-03 4.882879021466e-04 -1.614363076802e-03 4.882879021466e-04 6.369791249106e-01 -3.637951207195e-02
20.950000000 6.412300437945e-01 -4.688500687115e-02 -4.856116769511e-04 1.580651735397e-03 -4.856116769511e-04 1.580651735397e-03 6.412300437945e-01 -4.688500687115e-02
21.000000000 6.441099854864e-01 -5.762313720044e-02 1.036355753863e-03 1.280977764153e-03 1.036355753863e-03 1.280977764153e-03 6.441099854864e-01 -5.762313720044e-02
21.050000000 6.459202615978e-01 -6.840771517993e-02 1.654413251645e-03 -1.317043663609e-04 1.654413251645e-03 -1.317043663609e-04 6.459202615978e-01 -6.840771517993e-02
21.100000000 6.468442807183e-01 -7.936139624902e-02 8.481883809081e-04 -1.443491499452e-03 8.481883809081e-04 -1.443491499452e-03 6.468442807183e-01 -7.936139624902e-02
21.150000000 6.467504985496e-01 -9.067868655078e-02 -6.919421651750e-04 -1.532745360764e-03 -6.919421651750e-04 -1.532745360764e-03 6.467504985496e-01 -9.067868655078e-02
21.200000000 6.452591093807e-01 -1.023234647930e-01 -1.653287649930e-03 -3.145159001391e-04 -1.653287649930e-03 -3.145159001391e-04 6.452591093807e-01 -1.023234647930e-01
21.250000000 6.420250084139e-01 -1.138887958360e-01 -1.198406909430e-03 1.187579129940e-03 -1.198406909430e-03 1.187579129940e-03 6.420250084139e-01 -1.138887958360e-01
21.300000000 6.370423251573e-01 -1.247267481590e-01 3.223278557622e-04 1.673566400628e-03 3.223278557622e-04 1.673566400628e-03 6.370423251573e-01 -1.247267481590e-01
21.350000000 6.307569843371e-01 -1.342920773798e-01 1.604849873998e-03 6.660650603453e-04 1.604849873998e-03 6.660650603453e-04 6.307569843371e-01 -1.342920773798e-01
21.400000000 6.238495847376e-01 -1.424869338782e-01 1.475620507595e-03 -9.972499638904e-04 1.475620507595e-03 -9.972499638904e-04 6.238495847376e-01 -1.424869338782e-01
21.450000000 6.167784280601e-01 -1.496971102468e-01 -1.511594143841e-05 -1.824394443497e-03 -1.511594143841e-05 -1.824394443497e-03 6.167784280601e-01 -1.496971102468e-01
21.500000000 6.094661435070e-01 -1.564002981083e-01 -1.557348866930e-03 -1.019119304517e-03 -1.557348866930e-03 -1.019119304517e-03 6.094661435070e-01 -1.564002981083e-01
21.550000000 6.014683504310e-01 -1.626620175048e-01 -1.737299296054e-03 7.473466683237e-04 -1.737299296054e-03 7.473466683237e-04 6.014683504310e-01 -1.626620175048e-01
21.600000000 5.925112749937e-01 -1.679969708383e-01 -3.287503662957e-04 1.890925409075e-03 -3.287503662957e-04 1.890925409075e-03 5.925112749937e-01 -1.679969708383e-01
21.650000000 5.829288689402e-01 -1.717621234576e-01 1.435541848801e-03 1.319013202933e-03 1.435541848801e-03 1.319013202933e-03 5.829288689402e-01 -1.717621234576e-01
21.700000000 5.735674648996e-01 -1.737894130644e-01 1.914969701618e-03 -5.112528625909e-04 1.914969701618e-03 -5.112528625909e-04 5.735674648996e-01 -1.737894130644e-01
21.750000000 5.651392121223e-01 -1.746672324209e-01 6.072600340807e-04 -1.919976099210e-03 6.072600340807e-04 -1.919976099210e-03 5.651392121223e-01 -1.746672324209e-01
21.800000000 5.576028154448e-01 -1.752936132800e-01 -1.306117076315e-03 -1.569056074909e-03 -1.306117076315e-03 -1.569056074909e-03 5.576028154448e-01 -1.752936132800e-01
21.850000000 5.502414381487e-01 -1.760829188662e-01 -2.049789933453e-03 2.511373086745e-04 -2.049789933453e-03 2.511373086745e-04 5.502414381487e-01 -1.760829188662e-01
21.900000000 5.423909263599e-01 -1.766195385013e-01 -9.056430968797e-04 1.879176543646e-03 -9.056430968797e-04 1.879176543646e-03 5.423909263599e-01 -1.766195385013e-01
21.950000000 5.341276922635e-01 -1.760893385845e-01 1.108750001474e-03 1.789865731875e-03 1.108750001474e-03 1.789865731875e-03 5.341276922635e-01 -1.760893385845e-01
22.000000000 5.262828212664e-01 -1.741161058073e-01 2.122933338502e-03 1.884950640310e-05 2.122933338502e-03 1.884950640310e-05 5.262828212664e-01 -1.741161058073e-01
22.050000000 5.197020355276e-01 -1.712426027581e-01 1.156551732740e-03 -1.797791314696e-03 1.156551732740e-03 -1.797791314696e-03 5.197020355276e-01 -1.712426027581e-01
22.100000000 5.144143062457e-01 -1.685145763183e-01 -9.039565708489e-04 -1.950268010858e-03 -9.039565708489e-04 -1.950268010858e-03 5.144143062457e-01 -1.685145763183e-01
22.150000000 5.095819642062e-01 -1.665289509932e-01 -2.140952890031e-03 -2.887075327781e-04 -2.140952890031e-03 -2.887075327781e-04 5.095819642062e-01 -1.665289509932e-01
22.200000000 5.042922943469e-01 -1.649133232290e-01 -1.403910296020e-03 1.656507941637e-03 -1.403910296020e-03 1.656507941637e-03 5.042922943469e-01 -1.649133232290e-01
22.250000000 4.984053023108e-01 -1.627134066427e-01 6.460241049675e-04 2.084563079567e-03 6.460241049675e-04 2.084563079567e-03 4.984053023108e-01 -1.627134066427e-01
22.300000000 4.926975845213e-01 -1.593173004237e-01 2.115222622687e-03 5.715960874753e-04 2.115222622687e-03 5.715960874753e-04 4.926975845213e-01 -1.593173004237e-01
22.350000000 4.881413569192e-01 -1.550993880733e-01 1.616123377005e-03 -1.486546389370e-03 1.616123377005e-03 -1.486546389370e-03 4.881413569192e-01 -1.550993880733e-01
22.400000000 4.849420840483e-01 -1.511251347741e-01 -3.913851696847e-04 -2.162268158771e-03 -3.913851696847e-04 -2.162268158771e-03 4.849420840483e-01 -1.511251347741e-01
22.450000000 4.823104196408e-01 -1.481503008968e-01 -2.035195577588e-03 -8.323778010222e-04 -2.035195577588e-03 -8.323778010222e-04 4.823104196408e-01 -1.481503008968e-01
22.500000000 4.792039889253e-01 -1.459291279805e-01 -1.800877670423e-03 1.268294526398e-03 -1.800877670423e-03 1.268294526398e-03 4.792039889253e-01 -1.459291279805e-01
22.550000000 4.752796684968e-01 -1.434722556110e-01 9.988946023481e-05 2.206281955691e-03 9.988946023481e-05 2.206281955691e-03 4.752796684968e-01 -1.434722556110e-01
22.600000000 4.712006939325e-01 -1.399711214271e-01 1.919726716846e-03 1.101634901415e-03 1.919726716846e-03 1.101634901415e-03 4.712006939325e-01 -1.399711214271e-01
22.650000000 4.680247953699e-01 -1.355804715879e-01 1.958599979577e-03 -1.032364609952e-03 1.958599979577e-03 -1.032364609952e-03 4.680247953699e-01 -1.355804715879e-01
22.700000000 4.661800872016e-01 -1.313105440805e-01 1.772863001528e-04 -2.203410713624e-03 1.772863001528e-04 -2.203410713624e-03 4.661800872016e-01 -1.313105440805e-01
22.750000000 4.650305955446e-01 -1.280687422372e-01 -1.759214889364e-03 -1.331412464778e-03 -1.759214889364e-03 -1.331412464778e-03 4.650305955446e-01 -1.280687422372e-01
22.800000000 4.634804136094e-01 -1.258106041658e-01 -2.068508364094e-03 7.634495830419e-04 -2.068508364094e-03 7.634495830419e-04 4.634804136094e-01 -1.258106041658e-01
22.850000000 4.609809570022e-01 -1.236081589522e-01 -4.724765475674e-04 2.156160286867e-03 -4.724765475674e-04 2.156160286867e-03 4.609809570022e-01 -1.236081589522e-01
22.900000000 4.580168406046e-01 -1.205072876796e-01 1.566393430028e-03 1.559906950161e-03 1.566393430028e-03 1.559906950161e-03 4.580168406046e-01 -1.205072876796e-01
22.950000000 4.556638000152e-01 -1.164168867574e-01 2.156847391640e-03 -4.854901605642e-04 2.156847391640e-03 -4.854901605642e-04 4.556638000152e-01 -1.164168867574e-01
23.000000000 4.545697451428e-01 -1.122216038412e-01 7.459693678293e-04 -2.076455180320e-03 7.459693678293e-04 -2.076455180320e-03 4.545697451428e-01 -1.122216038412e-01
23.050000000 4.543179714158e-01 -1.089447355499e-01 -1.344763802902e-03 -1.740972731105e-03 -1.344763802902e-03 -1.740972731105e-03 4.543179714158e-01 -1.089447355499e-01
23.100000000 4.538280016848e-01 -1.067796331570e-01 -2.186970475847e-03 1.919589366890e-04 -2.186970475847e-03 1.919589366890e-04 4.538280016848e-01 -1.067796331570e-01
23.150000000 4.523609016347e-01 -1.049347878593e-01 -1.019225367492e-03 1.943978246910e-03 -1.019225367492e-03 1.943978246910e-03 4.523609016347e-01 -1.049347878593e-01
23.200000000 4.501777431047e-01 -1.023678542812e-01 1.089554706386e-03 1.907519841757e-03 1.089554706386e-03 1.907519841757e-03 4.501777431047e-01 -1.023678542812e-01
23.250000000 4.483035670217e-01 -9.874001109178e-02 2.194222064648e-03 1.056616004298e-04 2.194222064648e-03 1.056616004298e-04 4.483035670217e-01 -9.874001109178e-02
23.300000000 4.475752248777e-01 -9.475290977847e-02 1.264687987384e-03 -1.791069997874e-03 1.264687987384e-03 -1.791069997874e-03 4.475752248777e-01 -9.475290977847e-02
23.350000000 4.478324869646e-01 -9.149424729726e-02 -8.264226314171e-04 -2.023452009558e-03 -8.264226314171e-04 -2.023452009558e-03 4.478324869646e-01 -9.149424729726e-02
23.400000000 4.480732580135e-01 -8.940371931438e-02 -2.143923605746e-03 -3.960457028451e-04 -2.143923605746e-03 -3.960457028451e-04 4.480732580135e-01 -8.940371931438e-02
23.450000000 4.473961409734e-01 -8.788362109925e-02 -1.491597460143e-03 1.588092410793e-03 -1.491597460143e-03 1.588092410793e-03 4.473961409734e-01 -8.788362109925e-02
23.500000000 4.458096964108e-01 -8.586092066484e-02 5.314572290635e-04 2.114448817527e-03 5.314572290635e-04 2.114448817527e-03 4.458096964108e-01 -8.586092066484e-02
23.550000000 4.442234841345e-01 -8.276010870407e-02 2.068302286293e-03 6.908067622320e-04 2.068302286293e-03 6.908067622320e-04 4.442234841345e-01 -8.276010870407e-02
23.600000000 4.436191762488e-01 -7.905032072696e-02 1.691289161738e-03 -1.370231918671e-03 1.691289161738e-03 -1.370231918671e-03 4.436191762488e-01 -7.905032072696e-02
23.650000000 4.441158239555e-01 -7.582241998074e-02 -2.437826980840e-04 -2.155392890997e-03 -2.437826980840e-04 -2.155392890997e-03 4.441158239555e-01 -7.582241998074e-02
23.700000000 4.448530308958e-01 -7.375554925276e-02 -1.939716935028e-03 -9.550538260840e-04 -1.939716935028e-03 -9.550538260840e-04 4.448530308958e-01 -7.375554925276e-02
23.750000000 4.448031316703e-01 -7.249774368324e-02 -1.850157835276e-03 1.113541317450e-03 -1.850157835276e-03 1.113541317450e-03 4.448031316703e-01 -7.249774368324e-02
23.800000000 4.436955348723e-01 -7.100622161719e-02 -6.361800721534e-05 2.160256428217e-03 -6.361800721534e-05 2.160256428217e-03 4.436955348723e-01 -7.100622161719e-02
23.850000000 4.422501111567e-01 -6.848033894959e-02 1.786634545450e-03 1.220224078676e-03 1.786634545450e-03 1.220224078676e-03 4.422501111567e-01 -6.848033894959e-02
23.900000000 4.415356432269e-01 -6.508939297062e-02 1.988748127975e-03 -8.480328661688e-04 1.988748127975e-03 -8.480328661688e-04 4.415356432269e-01 -6.508939297062e-02
23.950000000 4.419817431500e-01 -6.182814418544e-02 3.551824625883e-04 -2.126011435900e-03 3.551824625883e-04 -2.126011435900e-03 4.419817431500e-01 -6.182814418544e-02
24.000000000 4.429819533012e-01 -5.958099687852e-02 -1.592586076453e-03 -1.440631230245e-03 -1.592586076453e-03 -1.440631230245e-03 4.429819533012e-01 -5.958099687852e-02
24.050000000 4.434876248997e-01 -5.831303969772e-02 -2.068564522551e-03 5.603486794807e-04 -2.068564522551e-03 5.603486794807e-04 4.434876248997e-01 -5.831303969772e-02
24.100000000 4.429714279330e-01 -5.714663630732e-02 -6.469583801987e-04 2.044603711127e-03 -6.469583801987e-04 2.044603711127e-03 4.429714279330e-01 -5.714663630732e-02
24.150000000 4.418781338431e-01 -5.517859065498e-02 1.374727078264e-03 1.651906356245e-03 1.374727078264e-03 1.651906356245e-03 4.418781338431e-01 -5.517859065498e-02
24.200000000 4.412040810461e-01 -5.230702991603e-02 2.134987955147e-03 -2.665847907910e-04 2.134987955147e-03 -2.665847907910e-04 4.412040810461e-01 -5.230702991603e-02
24.250000000 4.415546325478e-01 -4.933342573320e-02 9.273446807944e-04 -1.937826276398e-03 9.273446807944e-04 -1.937826276398e-03 4.415546325478e-01 -4.933342573320e-02
24.300000000 4.425523795978e-01 -4.719414940858e-02 -1.123323760629e-03 -1.821950819339e-03 -1.123323760629e-03 -1.821950819339e-03 4.425523795978e-01 -4.719414940858e-02
24.350000000 4.431966277515e-01 -4.605947636258e-02 -2.132310786390e-03 -4.289942435621e-05 -2.132310786390e-03 -4.289942435621e-05 4.431966277515e-01 -4.605947636258e-02
24.400000000 4.427965760741e-01 -4.517311737988e-02 -1.187838122044e-03 1.767740264806e-03 -1.187838122044e-03 1.767740264806e-03 4.427965760741e-01 -4.517311737988e-02
24.450000000 4.416018335220e-01 -4.352425489490e-02 8.497315498628e-04 1.955600042278e-03 8.497315498628e-04 1.955600042278e-03 4.416018335220e-01 -4.352425489490e-02
24.500000000 4.406103885653e-01 -4.074637592204e-02 2.110476525383e-03 3.354497101442e-04 2.110476525383e-03 3.354497101442e-04 4.406103885653e-01 -4.074637592204e-02
24.550000000 4.406948019744e-01 -3.747433513420e-02 1.419815371167e-03 -1.600660610691e-03 1.419815371167e-03 -1.600660610691e-03 4.406948019744e-01 -3.747433513420e-02
24.600000000 4.418068854843e-01 -3.478301186489e-02 -5.800796309139e-04 -2.057997212062e-03 -5.800796309139e-04 -2.057997212062e-03 4.418068854843e-01 -3.478301186489e-02
24.650000000 4.430457950097e-01 -3.321066480500e-02 -2.039755794158e-03 -6.273282627551e-04 -2.039755794158e-03 -6.273282627551e-04 4.430457950097e-01 -3.321066480500e-02
24.700000000 4.435028843181e-01 -3.232256010442e-02 -1.631020373920e-03 1.370018483847e-03 -1.631020373920e-03 1.370018483847e-03 4.435028843181e-01 -3.232256010442e-02
24.750000000 4.430457022442e-01 -3.116465403710e-02 2.689426742498e-04 2.110957852326e-03 2.689426742498e-04 2.110957852326e-03 4.430457022442e-01 -3.116465403710e-02
24.800000000 4.423771722591e-01 -2.913333437136e-02 1.922848218619e-03 9.107749902228e-04 1.922848218619e-03 9.107749902228e-04 4.423771722591e-01 -2.913333437136e-02
24.850000000 4.423528617999e-01 -2.650371240091e-02 1.801821905508e-03 -1.131691863256e-03 1.801821905508e-03 -1.131691863256e-03 4.423528617999e-01 -2.650371240091e-02
24.900000000 4.431632437026e-01 -2.413184752180e-02 1.709466127272e-05 -2.127884873099e-03 1.709466127272e-05 -2.127884873099e-03 4.431632437026e-01 -2.413184752180e-02
24.950000000 4.441730118484e-01 -2.259807503660e-02 -1.781145579646e-03 -1.166396022969e-03 -1.781145579646e-03 -1.166396022969e-03 4.441730118484e-01 -2.259807503660e-02
25.000000000 4.445686788945e-01 -2.164664216069e-02 -1.949041647675e-03 8.633926206265e-04 -1.949041647675e-03 8.633926206265e-04 4.445686788945e-01 -2.164664216069e-02
25.050000000 4.441517627716e-01 -2.044131734288e-02 -3.336525045356e-04 2.108585159731e-03 -3.336525045356e-04 2.108585159731e-03 4.441517627716e-01 -2.044131734288e-02
25.100000000 4.435495155039e-01 -1.836095373859e-02 1.593379668752e-03 1.422348297240e-03 1.593379668752e-03 1.422348297240e-03 4.435495155039e-01 -1.836095373859e-02
25.150000000 4.436531613780e-01 -1.562178230491e-02 2.054251597258e-03 -5.740644844268e-04 2.054251597258e-03 -5.740644844268e-04 4.436531613780e-01 -1.562178230491e-02
25.200000000 4.447601427689e-01 -1.312657265625e-02 6.214506581208e-04 -2.034153731391e-03 6.214506581208e-04 -2.034153731391e-03 4.447601427689e-01 -1.312657265625e-02
25.250000000 4.462539258337e-01 -1.162679762549e-02 -1.373043510136e-03 -1.617206415542e-03 -1.373043510136e-03 -1.617206415542e-03 4.462539258337e-01 -1.162679762549e-02
25.300000000 4.471610140192e-01 -1.101806445293e-02 -2.101638869572e-03 2.785239019935e-04 -2.101638869572e-03 2.785239019935e-04 4.471610140192e-01 -1.101806445293e-02
25.350000000 4.470234553030e-01 -1.043613349268e-02 -9.062023458175e-04 1.920219669089e-03 -9.062023458175e-04 1.920219669089e-03 4.470234553030e-01 -1.043613349268e-02
25.400000000 4.462971909893e-01 -9.017015602964e-03 1.127622384308e-03 1.805368911125e-03 1.127622384308e-03 1.805368911125e-03 4.462971909893e-01 -9.017015602964e-03
25.450000000 4.459543641858e-01 -6.660323571407e-03 2.131753532189e-03 2.475388599418e-05 2.131753532189e-03 2.475388599418e-05 4.459543641858e-01 -6.660323571407e-03
25.500000000 4.466037384750e-01 -4.126938767618e-03 1.169969950246e-03 -1.781660395093e-03 1.169969950246e-03 -1.781660395093e-03 4.466037384750e-01 -4.126938767618e-03
25.550000000 4.479266722625e-01 -2.326190136008e-03 -8.664282286329e-04 -1.944946366291e-03 -8.664282286329e-04 -1.944946366291e-03 4.479266722625e-01 -2.326190136008e-03
25.600000000 4.489993440157e-01 -1.463940217607e-03 -2.103800956416e-03 -3.253469802871e-04 -2.103800956416e-03 -3.253469802871e-04 4.489993440157e-01 -1.463940217607e-03
25.650000000 4.491658367860e-01 -8.784122181237e-04 -1.416884713516e-03 1.593379462380e-03 -1.416884713516e-03 1.593379462380e-03 4.491658367860e-01 -8.784122181237e-04
25.700000000 4.486313986053e-01 3.355266701320e-04 5.730242044790e-04 2.059578610221e-03 5.730242044790e-04 2.059578610221e-03 4.486313986053e-01 3.355266701320e-04
25.750000000 4.482790564641e-01 2.492627501860e-03 2.046224615144e-03 6.319844669382e-04 2.046224615144e-03 6.319844669382e-04 4.482790564641e-01 2.492627501860e-03
25.800000000 4.488562418164e-01 5.001571568714e-03 1.635693760389e-03 -1.381380005877e-03 1.635693760389e-03 -1.381380005877e-03 4.488562418164e-01 5.001571568714e-03
25.850000000 4.502535685363e-01 6.903804755212e-03 -2.787666819953e-04 -2.118890026757e-03 -2.787666819953e-04 -2.118890026757e-03 4.502535685363e-01 6.903804755212e-03
25.900000000 4.515990585453e-01 7.780905280151e-03 -1.930033695748e-03 -9.113775820964e-04 -1.930033695748e-03 -9.113775820964e-04 4.515990585453e-01 7.780905280151e-03
25.950000000 4.520713167465e-01 8.136715244454e-03 -1.813653844051e-03 1.128750647703e-03 -1.813653844051e-03 1.128750647703e-03 4.520713167465e-01 8.136715244454e-03
26.000000000 4.516382550514e-01 8.932983906809e-03 -3.371385275815e-05 2.142133823704e-03 -3.371385275815e-05 2.142133823704e-03 4.516382550514e-01 8.932983906809e-03
26.050000000 4.510890837239e-01 1.073008026143e-02 1.789744911713e-03 1.189847189310e-03 1.789744911713e-03 1.189847189310e-03 4.510890837239e-01 1.073008026143e-02
26.100000000 4.513316911597e-01 1.316681756184e-02 1.970513763331e-03 -8.660806219461e-04 1.970513763331e-03 -8.660806219461e-04 4.513316911597e-01 1.316681756184e-02
26.150000000 4.525467757180e-01 1.527844256260e-02 3.349623939106e-04 -2.125249906144e-03 3.349623939106e-04 -2.125249906144e-03 4.525467757180e-01 1.527844256260e-02
26.200000000 4.540170106867e-01 1.640289387206e-02 -1.604186008538e-03 -1.430711437022e-03 -1.604186008538e-03 -1.430711437022e-03 4.540170106867e-01 1.640289387206e-02
26.250000000 4.548103001496e-01 1.678762860145e-02 -2.073134629379e-03 5.721898731295e-04 -2.073134629379e-03 5.721898731295e-04 4.548103001496e-01 1.678762860145e-02
26.300000000 4.546304912838e-01 1.734101653498e-02 -6.448200233545e-04 2.057615915325e-03 -6.448200233545e-04 2.057615915325e-03 4.546304912838e-01 1.734101653498e-02
26.350000000 4.540776047753e-01 1.880764575477e-02 1.386593342655e-03 1.661118991323e-03 1.386593342655e-03 1.661118991323e-03 4.540776047753e-01 1.880764575477e-02
26.400000000 4.541116392056e-01 2.108399938722e-02 2.151833153139e-03 -2.711410960941e-04 2.151833153139e-03 -2.711410960941e-04 4.541116392056e-01 2.108399938722e-02
26.450000000 4.551599386811e-01 2.329374318041e-02 9.337397472308e-04 -1.958239852036e-03 9.337397472308e-04 -1.958239852036e-03 4.551599386811e-01 2.329374318041e-02
26.500000000 4.567038120912e-01 2.460935450219e-02 -1.140770930323e-03 -1.843352518375e-03 -1.140770930323e-03 -1.843352518375e-03 4.567038120912e-01 2.460935450219e-02
26.550000000 4.577729460766e-01 2.502788065936e-02 -2.167779533033e-03 -4.111626297622e-05 -2.167779533033e-03 -4.111626297622e-05 4.577729460766e-01 2.502788065936e-02
26.600000000 4.578419661577e-01 2.535698162600e-02 -1.213123104333e-03 1.803096363323e-03 -1.213123104333e-03 1.803096363323e-03 4.578419661577e-01 2.535698162600e-02
26.650000000 4.572988870459e-01 2.647951700735e-02 8.627327747629e-04 2.003606784040e-03 8.627327747629e-04 2.003606784040e-03 4.572988870459e-01 2.647951700735e-02
26.700000000 4.571050218246e-01 2.855279629064e-02 2.159387084221e-03 3.569440453619e-04 2.159387084221e-03 3.569440453619e-04 4.571050218246e-01 2.855279629064e-02
26.750000000 4.579165606389e-01 3.084131651776e-02 1.467946109123e-03 -1.627469310534e-03 1.467946109123e-03 -1.627469310534e-03 4.579165606389e-01 3.084131651776e-02
26.800000000 4.594570045869e-01 3.239432015586e-02 -5.750582656597e-04 -2.114443538553e-03 -5.750582656597e-04 -2.114443538553e-03 4.594570045869e-01 3.239432015586e-02
26.850000000 4.607794277805e-01 3.294075975510e-02 -2.088594715839e-03 -6.632615524458e-04 -2.088594715839e-03 -6.632615524458e-04 4.607794277805e-01 3.294075975510e-02
26.900000000 4.611500502014e-01 3.312475179361e-02 -1.693829946614e-03 1.397099931995e-03 -1.693829946614e-03 1.397099931995e-03 4.611500502014e-01 3.312475179361e-02
26.950000000 4.607053021018e-01 3.391051748430e-02 2.576072023136e-04 2.188934973028e-03 2.576072023136e-04 2.188934973028e-03 4.607053021018e-01 3.391051748430e-02
27.000000000 4.603336215242e-01 3.571451648319e-02 1.989029346919e-03 9.697796487586e-04 1.989029346919e-03 9.697796487586e-04 4.603336215242e-01 3.571451648319e-02
27.050000000 4.608751222968e-01 3.800670825025e-02 1.894296870278e-03 -1.153977335534e-03 1.894296870278e-03 -1.153977335534e-03 4.608751222968e-01 3.800670825025e-02
27.100000000 4.623275857037e-01 3.978646847932e-02 5.278601498863e-05 -2.218563251664e-03 5.278601498863e-05 -2.218563251664e-03 4.623275857037e-01 3.978646847932e-02
27.150000000 4.638444960532e-01 4.052556877869e-02 -1.836059959478e-03 -1.246821328492e-03 -1.836059959478e-03 -1.246821328492e-03 4.638444960532e-01 4.052556877869e-02
27.200000000 4.645329444549e-01 4.064912380585e-02 -2.046993386222e-03 8.665905556213e-04 -2.046993386222e-03 8.665905556213e-04 4.645329444549e-01 4.064912380585e-02
27.250000000 4.642614104953e-01 4.113201414923e-02 -3.831211256012e-04 2.197808268221e-03 -3.831211256012e-04 2.197808268221e-03 4.642614104953e-01 4.113201414923e-02
27.300000000 4.637765015528e-01 4.262210606601e-02 1.649101850558e-03 1.517306868549e-03 1.649101850558e-03 1.517306868549e-03 4.637765015528e-01 4.262210606601e-02
27.350000000 4.640389915770e-01 4.483991520590e-02 2.174628017242e-03 -5.716239625557e-04 2.174628017242e-03 -5.716239625557e-04 4.640389915770e-01 4.483991520590e-02
27.400000000 4.653277977458e-01 4.681419852316e-02 6.942737974104e-04 -2.141994567588e-03 6.942737974104e-04 -2.141994567588e-03 4.653277977458e-01 4.681419852316e-02
27.450000000 4.669674699300e-01 4.779320416909e-02 -1.425179268040e-03 -1.744559783409e-03 -1.425179268040e-03 -1.744559783409e-03 4.669674699300e-01 4.779320416909e-02
27.500000000 4.679695073601e-01 4.794303430281e-02 -2.241806077575e-03 2.500232153946e-04 -2.241806077575e-03 2.500232153946e-04 4.679695073601e-01 4.794303430281e-02
27.550000000 4.679376968296e-01 4.817623071625e-02 -1.009987308877e-03 2.025295019330e-03 -1.009987308877e-03 2.025295019330e-03 4.679376968296e-01 4.817623071625e-02
27.600000000 4.674181799861e-01 4.932642797184e-02 1.161850779863e-03 1.954267602328e-03 1.161850779863e-03 1.954267602328e-03 4.674181799861e-01 4.932642797184e-02
27.650000000 4.674186934002e-01 5.138955339810e-02 2.281556234409e-03 7.677428455655e-05 2.281556234409e-03 7.677428455655e-05 4.674186934002e-01 5.138955339810e-02
27.700000000 4.684819491641e-01 5.350219534562e-02 1.298725513298e-03 -1.883898495560e-03 1.298725513298e-03 -1.883898495560e-03 4.684819491641e-01 5.350219534562e-02
27.750000000 4.701620536794e-01 5.474316273497e-02 -8.825845080730e-04 -2.113711397656e-03 -8.825845080730e-04 -2.113711397656e-03 4.701620536794e-01 5.474316273497e-02
27.800000000 4.714483443174e-01 5.499901594826e-02 -2.257588617647e-03 -4.065988735265e-04 -2.257588617647e-03 -4.065988735265e-04 4.714483443174e-01 5.499901594826e-02
27.850000000 4.717029804208e-01 5.505066266131e-02 -1.572728889065e-03 1.679967554358e-03 -1.572728889065e-03 1.679967554358e-03 4.717029804208e-01 5.505066266131e-02
27.900000000 4.712284405666e-01 5.585889016128e-02 5.621570501856e-04 2.242669811586e-03 5.621570501856e-04 2.242669811586e-03 4.712284405666e-01 5.585889016128e-02
27.950000000 4.710039230784e-01 5.769851490398e-02 2.201063478589e-03 7.415619045431e-04 2.201063478589e-03 7.415619045431e-04 4.710039230784e-01 5.769851490398e-02
28.000000000 4.717984313656e-01 5.988303939752e-02 1.817007834386e-03 -1.457838520962e-03 1.817007834386e-03 -1.457838520962e-03 4.717984313656e-01 5.988303939752e-02
28.050000000 4.734373158435e-01 6.138904269761e-02 -2.451682245591e-04 -2.320048792072e-03 -2.451682245591e-04 -2.320048792072e-03 4.734373158435e-01 6.138904269761e-02
28.100000000 4.749643514736e-01 6.182179262319e-02 -2.085456928525e-03 -1.053610532209e-03 -2.085456928525e-03 -1.053610532209e-03 4.749643514736e-01 6.182179262319e-02
28.150000000 4.755386662532e-01 6.176794866172e-02 -2.023892942299e-03 1.182162563217e-03 -2.023892942299e-03 1.182162563217e-03 4.755386662532e-01 6.176794866172e-02
28.200000000 4.751900626893e-01 6.224843969891e-02 -1.056060868778e-04 2.353024685413e-03 -1.056060868778e-04 2.353024685413e-03 4.751900626893e-01 6.224843969891e-02
28.250000000 4.747945970401e-01 6.380248552211e-02 1.932236901075e-03 1.368413477370e-03 1.932236901075e-03 1.368413477370e-03 4.747945970401e-01 6.380248552211e-02
28.300000000 4.752928453278e-01 6.597920416351e-02 2.202957189102e-03 -8.919793687787e-04 2.202957189102e-03 -8.919793687787e-04 4.752928453278e-01 6.597920416351e-02
28.350000000 4.768052876600e-01 6.773185403943e-02 4.395895379730e-04 -2.340391108183e-03 4.395895379730e-04 -2.340391108183e-03 4.768052876600e-01 6.773185403943e-02
28.400000000 4.785089714742e-01 6.840348873347e-02 -1.731704052475e-03 -1.639676358620e-03 -1.731704052475e-03 -1.639676358620e-03 4.785089714742e-01 6.840348873347e-02
28.450000000 4.794163343234e-01 6.833270149958e-02 -2.323895237919e-03 5.651114960268e-04 -2.323895237919e-03 5.651114960268e-04 4.794163343234e-01 6.833270149958e-02
28.500000000 4.792732159586e-01 6.852511947272e-02 -7.910702865696e-04 2.269413880933e-03 -7.910702865696e-04 2.269413880933e-03 4.792732159586e-01 6.852511947272e-02
28.550000000 4.787827837891e-01 6.974894978765e-02 1.488420247405e-03 1.904644245999e-03 1.488420247405e-03 1.904644245999e-03 4.787827837891e-01 6.974894978765e-02
28.600000000 4.789858639269e-01 7.182989781733e-02 2.418093791761e-03 -2.259428378152e-04 2.418093791761e-03 -2.259428378152e-04 4.789858639269e-01 7.182989781733e-02
28.650000000 4.802967108939e-01 7.378274615999e-02 1.117765858150e-03 -2.163437563528e-03 1.117765858150e-03 -2.163437563528e-03 4.802967108939e-01 7.378274615999e-02
28.700000000 4.820973601089e-01 7.473163154404e-02 -1.216354296331e-03 -2.114122453905e-03 -1.216354296331e-03 -2.114122453905e-03 4.820973601089e-01 7.473163154404e-02
28.750000000 4.833248024239e-01 7.473073646427e-02 -2.442024359454e-03 -1.264251610840e-04 -2.442024359454e-03 -1.264251610840e-04 4.833248024239e-01 7.473073646427e-02
28.800000000 4.834508053240e-01 7.469412953793e-02 -1.439398252999e-03 1.990972852019e-03 -1.439398252999e-03 1.990972852019e-03 4.834508053240e-01 7.469412953793e-02
28.850000000 4.829488639404e-01 7.556645710250e-02 8.987630927940e-04 2.302758228159e-03 8.987630927940e-04 2.302758228159e-03 4.829488639404e-01 7.556645710250e-02
28.900000000 4.828814092623e-01 7.746904693625e-02 2.437032539132e-03 4.901992613582e-04 2.437032539132e-03 4.901992613582e-04 4.828814092623e-01 7.746904693625e-02
28.950000000 4.839314024713e-01 7.955863572913e-02 1.733835549471e-03 -1.793811365427e-03 1.733835549471e-03 -1.793811365427e-03 4.839314024713e-01 7.955863572913e-02
29.000000000 4.857434192385e-01 8.080215575286e-02 -5.726623614671e-04 -2.433240024956e-03 -5.726623614671e-04 -2.433240024956e-03 4.857434192385e-01 8.080215575286e-02
29.050000000 4.872584511336e-01 8.095223491278e-02 -2.360141159325e-03 -8.409385320354e-04 -2.360141159325e-03 -8.409385320354e-04 4.872584511336e-01 8.095223491278e-02
29.100000000 4.877025119866e-01 8.075884643980e-02 -1.996960035735e-03 1.531016574255e-03 -1.996960035735e-03 1.531016574255e-03 4.877025119866e-01 8.075884643980e-02
29.150000000 4.872767752738e-01 8.127825479151e-02 2.042492644522e-04 2.523811418099e-03 2.042492644522e-04 2.523811418099e-03 4.872767752738e-01 8.127825479151e-02
29.200000000 4.869841984111e-01 8.292597819839e-02 2.247910370502e-03 1.200109090603e-03 2.247910370502e-03 1.200109090603e-03 4.869841984111e-01 8.292597819839e-02
29.250000000 4.877302712119e-01 8.507266339867e-02 2.233432764406e-03 -1.250949054648e-03 2.233432764406e-03 -1.250949054648e-03 4.877302712119e-01 8.507266339867e-02
29.300000000 4.894622425111e-01 8.660542967513e-02 1.542307260485e-04 -2.561856491568e-03 1.542307260485e-04 -2.561856491568e-03 4.894622425111e-01 8.660542967513e-02
29.350000000 4.912099273698e-01 8.697982444210e-02 -2.073826101732e-03 -1.521718616264e-03 -2.073826101732e-03 -1.521718616264e-03 4.912099273698e-01 8.697982444210e-02
29.400000000 4.920011994572e-01 8.671608373572e-02 -2.413757808460e-03 9.176836070037e-04 -2.413757808460e-03 9.176836070037e-04 4.920011994572e-01 8.671608373572e-02
29.450000000 4.917394335638e-01 8.690677438352e-02 -5.431514475588e-04 2.540786867022e-03 -5.431514475588e-04 2.540786867022e-03 4.917394335638e-01 8.690677438352e-02
29.500000000 4.912894644434e-01 8.823831790683e-02 1.855529192730e-03 1.844323521202e-03 1.855529192730e-03 1.844323521202e-03 4.912894644434e-01 8.823831790683e-02
29.550000000 4.917139168825e-01 9.035196628136e-02 2.568252053408e-03 -5.701731177987e-04 2.568252053408e-03 -5.701731177987e-04 4.917139168825e-01 9.035196628136e-02
29.600000000 4.932793610368e-01 9.214260448111e-02 9.093958757198e-04 -2.478005662865e-03 9.093958757198e-04 -2.478005662865e-03 4.932793610368e-01 9.214260448111e-02
29.650000000 4.951872659288e-01 9.279740385563e-02 -1.594479619443e-03 -2.111445236903e-03 -1.594479619443e-03 -2.111445236903e-03 4.951872659288e-01 9.279740385563e-02
29.700000000 4.963323646652e-01 9.255430960263e-02 -2.648305914167e-03 1.923190376440e-04 -2.648305914167e-03 1.923190376440e-04 4.963323646652e-01 9.255430960263e-02
29.750000000 4.963142573963e-01 9.246154490898e-02 -1.285028613005e-03 2.341444105349e-03 -1.285028613005e-03 2.341444105349e-03 4.963142573963e-01 9.246154490898e-02
29.800000000 4.957892174826e-01 9.343368824145e-02 1.281154155144e-03 2.365617338715e-03 1.281154155144e-03 2.365617338715e-03 4.957892174826e-01 9.343368824145e-02
29.850000000 4.958983005534e-01 9.541994454832e-02 2.700190139733e-03 1.999531132687e-04 2.700190139733e-03 1.999531132687e-04 4.958983005534e-01 9.541994454832e-02
29.900000000 4.972191156328e-01 9.741362568425e-02 1.631786697647e-03 -2.174901988037e-03 1.631786697647e-03 -2.174901988037e-03 4.972191156328e-01 9.741362568425e-02
29.950000000 4.991994291197e-01 9.838550570610e-02 -9.492402331361e-04 -2.555731066532e-03 -9.492402331361e-04 -2.555731066532e-03 4.991994291197e-01 9.838550570610e-02
30.000000000 5.006805418882e-01 9.825577919521e-02 -2.670539472597e-03 -5.922793441049e-04 -2.670539472597e-03 -5.922793441049e-04 5.006805418882e-01 9.825577919521e-02
