! 21-section rectangular-coax + circular-HW LPF
! openEMS full-wave reconstruction
# GHz S DB R 50
1 -0.0104313418956 178.678642791 -300 0 -300 0 -6.923812141e-05 179.999629581
1.1 -0.0103618489042 178.546476897 -300 0 -300 0 -6.89590112188e-05 179.999592348
1.2 -0.0102860667628 178.414302562 -300 0 -300 0 -6.86546738831e-05 179.999555061
1.3 -0.010204083332 178.2821191 -300 0 -300 0 -6.83254683387e-05 179.999517717
1.4 -0.0101159932892 178.149925846 -300 0 -300 0 -6.79717802705e-05 179.99948031
1.5 -0.0100218979322 178.017722154 -300 0 -300 0 -6.75940210714e-05 179.999442836
1.6 -0.00992190496961 177.885507404 -300 0 -300 0 -6.71926267282e-05 179.999405292
1.7 -0.00981612830083 177.753281001 -300 0 -300 0 -6.67680566687e-05 179.999367673
1.8 -0.00970468778447 177.621042373 -300 0 -300 0 -6.63207925739e-05 179.999329976
1.9 -0.00958770899716 177.488790978 -300 0 -300 0 -6.58513371049e-05 179.999292197
2 -0.0094653229832 177.3565263 -300 0 -300 0 -6.53602126597e-05 179.999254332
2.1 -0.00933766599585 177.224247853 -300 0 -300 0 -6.48479600353e-05 179.999216378
2.2 -0.0092048792313 177.091955182 -300 0 -300 0 -6.43151371231e-05 179.999178331
2.3 -0.00906710855597 176.95964786 -300 0 -300 0 -6.37623175382e-05 179.99914019
2.4 -0.00892450422817 176.827325497 -300 0 -300 0 -6.31900892777e-05 179.99910195
2.5 -0.00877722061499 176.69498773 -300 0 -300 0 -6.25990533428e-05 179.999063609
2.6 -0.00862541590513 176.562634233 -300 0 -300 0 -6.19898223645e-05 179.999025165
2.7 -0.00846925181884 176.430264713 -300 0 -300 0 -6.13630192602e-05 179.998986615
2.8 -0.00830889331544 176.297878909 -300 0 -300 0 -6.07192758578e-05 179.998947956
2.9 -0.00814450829967 176.165476598 -300 0 -300 0 -6.00592315657e-05 179.998909187
3 -0.00797626732737 176.033057591 -300 0 -300 0 -5.93835320479e-05 179.998870306
3.1 -0.0078043433115 175.900621732 -300 180 -300 0 -5.869282792e-05 179.99883131
3.2 -0.00762891122914 175.768168905 -300 180 -300 180 -5.79877734804e-05 179.998792199
3.3 -0.00745014783044 175.635699025 -300 180 -300 180 -5.72690254603e-05 179.998752971
3.4 -0.00726823134997 175.503212045 -300 180 -300 180 -5.653724183e-05 179.998713625
3.5 -0.00708334122139 175.370707953 -300 180 -300 180 -5.5793080601e-05 179.998674159
3.6 -0.00689565779601 175.238186774 -300 180 -300 180 -5.50371987181e-05 179.998634572
3.7 -0.00670536206596 175.105648567 -300 180 -300 180 -5.42702509504e-05 179.998594865
3.8 -0.00651263539237 174.973093425 -300 180 -300 180 -5.34928888624e-05 179.998555035
3.9 -0.00631765923935 174.840521478 -300 180 -300 180 -5.27057597935e-05 179.998515083
4 -0.0061206149142 174.70793289 -300 180 -300 180 -5.19095059163e-05 179.998475008
4.1 -0.00592168331423 174.575327857 -300 180 -300 180 -5.11047633362e-05 179.998434809
4.2 -0.00572104468081 174.442706612 -300 180 -300 180 -5.02921612279e-05 179.998394488
4.3 -0.00551887836091 174.310069418 -300 180 -300 180 -4.94723210369e-05 179.998354043
4.4 -0.00531536257658 174.177416573 -300 180 -300 180 -4.8645855726e-05 179.998313475
4.5 -0.00511067420262 174.044748406 -300 180 -300 180 -4.78133690726e-05 179.998272785
4.6 -0.00490498855282 173.912065275 -300 180 -300 180 -4.69754550215e-05 179.998231972
4.7 -0.00469847917486 173.779367572 -300 180 -300 180 -4.61326970717e-05 179.998191037
4.8 -0.00449131765427 173.646655718 -300 180 -300 180 -4.5285667746e-05 179.998149981
4.9 -0.00428367342742 173.513930161 -300 180 -300 180 -4.44349280796e-05 179.998108804
5 -0.00407571360386 173.381191381 -300 180 -300 180 -4.35810271598e-05 179.998067507
5.1 -0.00386760279791 173.248439881 -300 180 -300 180 -4.27245017394e-05 179.998026091
5.2 -0.0036595029698 173.115676194 -300 180 -300 180 -4.18658758616e-05 179.997984557
5.3 -0.0034515732761 172.982900878 -300 180 -300 180 -4.10056605602e-05 179.997942907
5.4 -0.00324396992975 172.850114515 -300 180 -300 180 -4.01443535814e-05 179.99790114
5.5 -0.00303684606939 172.717317712 -300 180 -300 180 -3.92824391531e-05 179.997859259
5.6 -0.0028303516381 172.584511099 -300 180 -300 180 -3.84203878126e-05 179.997817265
5.7 -0.00262463327146 172.451695327 -300 180 -300 180 -3.75586562413e-05 179.997775158
5.8 -0.00241983419468 172.31887107 -300 180 -300 180 -3.66976871676e-05 179.997732941
5.9 -0.00221609412884 172.186039022 -300 180 -300 180 -3.5837909277e-05 179.997690615
6 -0.00201354920603 172.053199894 -300 180 -300 180 -3.49797371874e-05 179.997648181
6.1 -0.00181233189313 171.920354419 -300 180 -300 180 -3.41235714169e-05 179.997605641
6.2 -0.0016125709242 171.787503344 -300 -180 -300 180 -3.32697984264e-05 179.997562997
6.3 -0.00141439124115 171.654647436 -300 -180 -300 -180 -3.24187906523e-05 179.997520249
6.4 -0.00121791394252 171.521787476 -300 -180 -300 -180 -3.15709065848e-05 179.9974774
6.5 -0.00102325624017 171.388924258 -300 -180 -300 -180 -3.07264908692e-05 179.997434452
6.6 -0.000830531423532 171.256058593 -300 -180 -300 -180 -2.98858744261e-05 179.997391406
6.7 -0.000639848831336 171.123191302 -300 -180 -300 -180 -2.90493745924e-05 179.997348264
6.8 -0.000451313830386 170.990323221 -300 -180 -300 -180 -2.82172952883e-05 179.997305027
6.9 -0.000265027801226 170.857455195 -300 -180 -300 -180 -2.73899271887e-05 179.997261698
7 -8.1088130384e-05 170.724588078 -300 -180 -300 -180 -2.65675479375e-05 179.997218278
7.1 0.000100411791065 170.591722738 -300 -180 -300 -180 -2.57504223356e-05 179.997174769
7.2 0.000279382562921 170.458860046 -300 -180 -300 -180 -2.49388025874e-05 179.997131172
7.3 0.0004557387655 170.326000885 -300 -180 -300 -180 -2.41329285213e-05 179.99708749
7.4 0.000629398943838 170.193146144 -300 -180 -300 -180 -2.3333027845e-05 179.997043725
7.5 0.000800285586675 170.060296716 -300 -180 -300 -180 -2.25393164057e-05 179.996999878
7.6 0.000968325100525 169.927453502 -300 -180 -300 -180 -2.1751998437e-05 179.99695595
7.7 0.00113344777913 169.794617407 -300 -180 -300 -180 -2.09712668552e-05 179.996911945
7.8 0.00129558776853 169.661789339 -300 -180 -300 -180 -2.0197303511e-05 179.996867863
7.9 0.00145468302802 169.528970209 -300 -180 -300 -180 -1.943027949e-05 179.996823707
8 0.00161067528734 169.396160934 -300 -180 -300 -180 -1.8670355384e-05 179.996779477
8.1 0.00176351000017 169.263362428 -300 -180 -300 -180 -1.79176815939e-05 179.996735177
8.2 0.00191313629451 169.13057561 -300 -180 -300 -180 -1.71723985953e-05 179.996690807
8.3 0.00205950691974 168.997801399 -300 -180 -300 -180 -1.64346372594e-05 179.99664637
8.4 0.00220257819106 168.865040711 -300 -180 -300 -180 -1.5704519112e-05 179.996601866
8.5 0.00234230993123 168.732294467 -300 -180 -300 -180 -1.49821566535e-05 179.996557299
8.6 0.00247866540998 168.599563581 -300 -180 -300 -180 -1.42676536237e-05 179.996512669
8.7 0.00261161128129 168.466848971 -300 -180 -300 -180 -1.3561105305e-05 179.996467978
8.8 0.00274111751869 168.334151549 -300 -180 -300 -180 -1.28625987984e-05 179.996423229
8.9 0.00286715734887 168.201472225 -300 -180 -300 -180 -1.21722133129e-05 179.996378421
9 0.00298970718375 168.068811908 -300 -180 -300 -180 -1.14900204403e-05 179.996333558
9.1 0.00310874655128 167.936171503 -300 -180 -300 -180 -1.0816084426e-05 179.99628864
9.2 0.00322425802491 167.803551908 -300 -180 -300 -180 -1.0150462453e-05 179.99624367
9.3 0.0033362271523 167.670954021 -300 -180 -300 -180 -9.49320490241e-06 179.996198648
9.4 0.00344464238302 167.538378733 -300 -180 -300 -180 -8.84435561083e-06 179.996153577
9.5 0.0035494949957 167.405826931 -300 -180 -300 -180 -8.20395213597e-06 179.996108457
9.6 0.00365077902466 167.273299496 -300 -180 -300 -180 -7.57202600758e-06 179.996063291
9.7 0.00374849118611 167.140797302 -300 -180 -300 -180 -6.94860297233e-06 179.996018079
9.8 0.00384263080417 167.00832122 -300 -180 -300 -180 -6.33370323588e-06 179.995972823
9.9 0.00393319973679 166.875872113 -300 -180 -300 -180 -5.72734170013e-06 179.995927525
10 0.00402020230167 166.743450838 -300 -180 -300 -180 -5.12952820038e-06 179.995882186
10.1 0.00410364520224 166.611058244 -300 -180 -300 -180 -4.54026771178e-06 179.995836806
10.2 0.00418353745401 166.478695174 -300 -180 -300 -180 -3.9595605942e-06 179.995791389
10.3 0.00425989031111 166.346362464 -300 -180 -300 -180 -3.38740278321e-06 179.995745934
10.4 0.00433271719337 166.214060942 -300 -180 -300 -180 -2.82378600031e-06 179.995700443
10.5 0.00440203361379 166.081791428 -300 -180 -300 -180 -2.26869797275e-06 179.995654917
10.6 0.0044678571067 165.949554736 -300 -180 -300 -180 -1.72212260042e-06 179.995609358
10.7 0.00453020715653 165.81735167 -300 -180 -300 -180 -1.18404016893e-06 179.995563767
10.8 0.00458910512733 165.685183026 -300 -180 -300 -180 -6.54427523181e-07 179.995518145
10.9 0.00464457419303 165.553049593 -300 -180 -300 -180 -1.33258242924e-07 179.995472492
11 0.00469663926867 165.420952151 -300 -180 -300 -180 3.79497181785e-07 179.995426811
11.1 0.00474532694236 165.288891472 -300 -180 -300 -180 8.83871187587e-07 179.995381102
11.2 0.00479066540835 165.156868317 -300 -180 -300 -180 1.37989897292e-06 179.995335366
11.3 0.00483268440097 165.024883442 -300 -180 -300 -180 1.86761834279e-06 179.995289605
11.4 0.0048714151297 164.892937591 -300 -180 -300 -180 2.34706956502e-06 179.995243818
11.5 0.00490689021518 164.761031502 -300 -180 -300 -180 2.81829522181e-06 179.995198009
11.6 0.00493914362645 164.629165902 -300 -180 -300 -180 3.28134007858e-06 179.995152176
11.7 0.00496821061924 164.49734151 -300 -180 -300 -180 3.73625092385e-06 179.995106322
11.8 0.00499412767533 164.365559035 -300 -180 -300 -180 4.1830764902e-06 179.995060447
11.9 0.00501693244325 164.233819179 -300 -180 -300 -180 4.62186727103e-06 179.995014553
12 0.00503666367997 164.102122634 -300 -180 -300 -180 5.05267545308e-06 179.994968639
12.1 0.0050533611939 163.970470082 -300 -180 -300 -180 5.47555476404e-06 179.994922707
12.2 0.00506706578905 163.838862197 -300 -180 -300 -180 5.89056039157e-06 179.994876758
12.3 0.00507781921038 163.707299643 -300 -180 -300 -180 6.29774885212e-06 179.994830792
12.4 0.00508566409042 163.575783077 -300 -180 -300 -180 6.69717792348e-06 179.994784811
12.5 0.00509064389702 163.444313145 -300 -180 -300 -180 7.08890650584e-06 179.994738815
12.6 0.00509280288241 163.312890485 -300 -180 -300 -180 7.47299456595e-06 179.994692805
12.7 0.00509218603341 163.181515726 -300 -180 -300 -180 7.84950302905e-06 179.994646781
12.8 0.00508883902286 163.050189486 -300 -180 -300 -180 8.21849369787e-06 179.994600745
12.9 0.00508280816229 162.918912378 -300 -180 -300 -180 8.58002917167e-06 179.994554697
13 0.00507414035577 162.787685004 -300 -180 -300 -180 8.93417277292e-06 179.994508638
13.1 0.00506288305492 162.656507955 -300 -180 -300 -180 9.28098847399e-06 179.994462569
13.2 0.00504908421517 162.525381818 -300 -180 -300 -180 9.6205408085e-06 179.994416489
13.3 0.00503279225315 162.394307167 -300 -180 -300 -180 9.95289483462e-06 179.994370401
13.4 0.00501405600521 162.26328457 -300 -180 -300 -180 1.02781160425e-05 179.994324304
13.5 0.0049929246872 162.132314584 -300 -180 -300 -180 1.05962703118e-05 179.994278198
13.6 0.00496944785523 162.001397761 -300 -180 -300 -180 1.09074238502e-05 179.994232086
13.7 0.00494367536767 161.870534642 -300 -180 -300 -180 1.12116431139e-05 179.994185967
13.8 0.00491565734822 161.739725758 -300 -180 -300 -180 1.15089948062e-05 179.994139841
13.9 0.00488544415006 161.608971637 -300 -180 -300 -180 1.17995457767e-05 179.99409371
14 0.00485308632105 161.478272792 -300 -180 -300 -180 1.20833629986e-05 179.994047574
14.1 0.00481863457005 161.347629734 -300 -180 -300 -180 1.2360513526e-05 179.994001433
14.2 0.00478213973419 161.217042962 -300 -180 -300 -180 1.26310644361e-05 179.993955288
14.3 0.00474365274726 161.086512968 -300 -180 -300 -180 1.28950828024e-05 179.99390914
14.4 0.00470322460904 160.956040237 -300 -180 -300 -180 1.31526356536e-05 179.993862989
14.5 0.00466090635558 160.825625244 -300 -180 -300 -180 1.34037899282e-05 179.993816835
14.6 0.00461674903056 160.69526846 -300 -180 -300 -180 1.36486124564e-05 179.993770678
14.7 0.00457080365747 160.564970343 -300 -180 -300 -180 1.38871699142e-05 179.99372452
14.8 0.00452312121281 160.434731348 -300 -180 -300 -180 1.41195287962e-05 179.993678361
14.9 0.00447375260014 160.30455192 -300 -180 -300 -180 1.43457553984e-05 179.993632201
15 0.00442274862506 160.174432499 -300 -180 -300 -180 1.45659157699e-05 179.993586041
15.1 0.00437015997102 160.044373514 -300 -180 -300 -180 1.47800757148e-05 179.99353988
15.2 0.00431603717605 159.914375389 -300 -180 -300 -180 1.49883007325e-05 179.99349372
15.3 0.00426043061022 159.784438542 -300 -0 -300 -180 1.51906560369e-05 179.993447561
15.4 0.00420339045403 159.654563381 -300 -0 -300 -0 1.53872065043e-05 179.993401403
15.5 0.00414496667749 159.52475031 -300 -0 -300 -0 1.5578016668e-05 179.993355247
15.6 0.00408520902005 159.394999723 -300 -0 -300 -0 1.57631506963e-05 179.993309092
15.7 0.00402416697129 159.26531201 -300 -0 -300 -0 1.5942672376e-05 179.993262939
15.8 0.00396188975225 159.135687554 -300 -0 -300 -0 1.61166450984e-05 179.99321679
15.9 0.00389842629761 159.006126728 -300 -0 -300 -0 1.62851318457e-05 179.993170643
16 0.00383382523857 158.876629904 -300 -0 -300 -0 1.64481951703e-05 179.993124499
16.1 0.00376813488624 158.747197442 -300 -0 -300 -0 1.66058971924e-05 179.993078359
16.2 0.00370140321596 158.617829701 -300 -0 -300 -0 1.67582995789e-05 179.993032222
16.3 0.00363367785205 158.488527028 -300 -0 -300 -0 1.69054635456e-05 179.99298609
16.4 0.00356500605336 158.35928977 -300 -0 -300 -0 1.70474498356e-05 179.992939962
16.5 0.00349543469931 158.230118262 -300 -0 -300 -0 1.71843187098e-05 179.992893839
16.6 0.00342501027663 158.101012838 -300 -0 -300 -0 1.73161299528e-05 179.992847721
16.7 0.00335377886665 157.971973822 -300 -0 -300 -0 1.74429428516e-05 179.992801608
16.8 0.00328178613314 157.843001536 -300 -0 -300 -0 1.75648161975e-05 179.9927555
16.9 0.00320907731074 157.714096294 -300 -0 -300 -0 1.76818082764e-05 179.992709399
17 0.00313569719392 157.585258404 -300 -0 -300 -0 1.77939768689e-05 179.992663303
17.1 0.00306169012649 157.456488169 -300 -0 -300 -0 1.7901379235e-05 179.992617214
17.2 0.00298709999155 157.327785889 -300 -0 -300 -0 1.80040721274e-05 179.992571131
17.3 0.00291197020205 157.199151854 -300 -0 -300 -0 1.81021117703e-05 179.992525055
17.4 0.00283634369172 157.070586353 -300 -0 -300 -0 1.8195553865e-05 179.992478986
17.5 0.00276026290656 156.942089667 -300 -0 -300 -0 1.82844535945e-05 179.992432924
17.6 0.00268376979673 156.813662074 -300 -0 -300 -0 1.8368865611e-05 179.992386869
17.7 0.00260690580892 156.685303844 -300 -0 -300 -0 1.84488440383e-05 179.992340822
17.8 0.0025297118791 156.557015245 -300 -0 -300 -0 1.85244424738e-05 179.992294783
17.9 0.00245222842581 156.42879654 -300 -0 -300 -0 1.85957139844e-05 179.992248751
18 0.00237449534368 156.300647985 -300 -0 -300 -0 1.86627111105e-05 179.992202728
18.1 0.00229655199749 156.172569832 -300 -0 -300 -0 1.87254858622e-05 179.992156714
18.2 0.00221843721657 156.044562331 -300 -0 -300 -0 1.87840897249e-05 179.992110708
18.3 0.00214018928955 155.916625724 -300 -0 -300 -0 1.88385736517e-05 179.99206471
18.4 0.00206184595948 155.78876025 -300 0 -300 0 1.88889880788e-05 179.992018722
18.5 0.00198344441932 155.660966144 -300 0 -300 0 1.89353829101e-05 179.991972743
18.6 0.00190502130779 155.533243637 -300 0 -300 0 1.89778075423e-05 179.991926773
18.7 0.00182661270545 155.405592953 -300 0 -300 0 1.90163108435e-05 179.991880812
18.8 0.00174825413125 155.278014315 -300 0 -300 0 1.90509411575e-05 179.991834861
18.9 0.00166998053924 155.150507941 -300 0 -300 0 1.9081746338e-05 179.99178892
19 0.00159182631573 155.023074044 -300 0 -300 0 1.91087737063e-05 179.991742988
19.1 0.00151382527658 154.895712834 -300 0 -300 0 1.91320700862e-05 179.991697067
19.2 0.00143601066492 154.768424518 -300 0 -300 0 1.91516817944e-05 179.991651156
19.3 0.0013584151491 154.641209297 -300 0 -300 0 1.91676546537e-05 179.991605255
19.4 0.00128107082078 154.51406737 -300 0 -300 0 1.91800339835e-05 179.991559364
19.5 0.00120400919352 154.38699893 -300 0 -300 0 1.91888646037e-05 179.991513485
19.6 0.00112726120141 154.260004171 -300 0 -300 0 1.91941908619e-05 179.991467616
19.7 0.00105085719804 154.133083278 -300 0 -300 0 1.91960566115e-05 179.991421758
19.8 0.000974826955665 154.006236437 -300 0 -300 0 1.91945052242e-05 179.99137591
19.9 0.000899199664642 153.879463828 -300 0 -300 0 1.91895796028e-05 179.991330074
20 0.000824003933038 153.752765628 -300 0 -300 0 1.9181322164e-05 179.99128425
20.1 0.00074926778649 153.626142011 -300 0 -300 0 1.91697748714e-05 179.991238436
20.2 0.00067501866823 153.499593149 -300 0 -300 0 1.91549792239e-05 179.991192634
20.3 0.000601283439358 153.373119209 -300 0 -300 0 1.91369762534e-05 179.991146844
20.4 0.000528088379252 153.246720355 -300 0 -300 0 1.91158065484e-05 179.991101065
20.5 0.000455459186226 153.12039675 -300 0 -300 0 1.90915102478e-05 179.991055298
20.6 0.000383420978318 152.994148552 -300 0 -300 0 1.90641270396e-05 179.991009543
20.7 0.000311998294262 152.867975917 -300 0 -300 0 1.90336961813e-05 179.9909638
20.8 0.00024121509466 152.741878998 -300 0 -300 0 1.90002564966e-05 179.990918069
20.9 0.00017109476329 152.615857945 -300 0 -300 0 1.89638463791e-05 179.990872351
21 0.00010166010855 152.489912905 -300 0 -300 0 1.89245037944e-05 179.990826644
21.1 3.29333651234e-05 152.364044024 -300 0 -300 0 1.88822662989e-05 179.99078095
21.2 -3.50638042969e-05 152.238251443 -300 0 -300 0 1.88371710288e-05 179.990735269
21.3 -0.000102310307056 152.112535301 -300 0 -300 0 1.87892547172e-05 179.9906896
21.4 -0.000168785618517 151.986895737 -300 0 -300 0 1.8738553692e-05 179.990643944
21.5 -0.000234469779876 151.861332883 -300 0 -300 0 1.86851038841e-05 179.9905983
21.6 -0.00029934339583 151.735846874 -300 0 -300 0 1.86289408344e-05 179.99055267
21.7 -0.000363387632175 151.610437837 -300 0 -300 0 1.85700996907e-05 179.990507052
21.8 -0.000426584213242 151.485105902 -300 0 -300 0 1.85086152303e-05 179.990461447
21.9 -0.000488915419225 151.359851193 -300 0 -300 0 1.84445218411e-05 179.990415856
22 -0.000550364083412 151.234673833 -300 0 -300 0 1.83778535444e-05 179.990370277
22.1 -0.000610913589304 151.109573943 -300 0 -300 0 1.8308643997e-05 179.990324712
22.2 -0.000670547867618 150.984551642 -300 0 -300 0 1.82369264989e-05 179.99027916
22.3 -0.000729251393217 150.859607047 -300 0 -300 0 1.81627339857e-05 179.990233622
22.4 -0.000787009181922 150.734740272 -300 0 -300 0 1.80860990457e-05 179.990188097
22.5 -0.000843806787225 150.60995143 -300 0 -300 0 1.8007053924e-05 179.990142585
22.6 -0.000899630296958 150.485240632 -300 0 -300 0 1.79256305203e-05 179.990097087
22.7 -0.000954466329832 150.360607986 -300 0 -300 0 1.78418604067e-05 179.990051603
22.8 -0.00100830203191 150.236053601 -300 0 -300 0 1.77557748156e-05 179.990006133
22.9 -0.00106112507299 150.111577581 -300 0 -300 0 1.7667404669e-05 179.989960676
23 -0.00111292364296 149.98718003 -300 0 -300 0 1.75767805494e-05 179.989915233
23.1 -0.00116368644801 149.86286105 -300 0 -300 0 1.74839327425e-05 179.989869804
23.2 -0.00121340270683 149.738620741 -300 0 -300 0 1.73888912117e-05 179.989824389
23.3 -0.0012620621467 149.614459201 -300 0 -300 0 1.72916856195e-05 179.989778988
23.4 -0.00130965499957 149.490376529 -300 0 -300 0 1.71923453295e-05 179.989733602
23.5 -0.00135617199802 149.366372818 -300 0 -300 0 1.70908994143e-05 179.989688229
23.6 -0.00140160437118 149.242448164 -300 0 -300 0 1.69873766453e-05 179.98964287
23.7 -0.00144594384065 149.118602659 -300 0 -300 0 1.68818055183e-05 179.989597526
23.8 -0.00148918261626 148.994836394 -300 0 -300 0 1.67742142436e-05 179.989552196
23.9 -0.00153131339186 148.871149459 -300 0 -300 0 1.66646307615e-05 179.989506881
24 -0.00157232934108 148.747541942 -300 0 -300 0 1.65530827288e-05 179.98946158
24.1 -0.0016122241129 148.62401393 -300 0 -300 0 1.64395975534e-05 179.989416293
24.2 -0.00165099182741 148.50056551 -300 0 -300 0 1.63242023656e-05 179.989371021
24.3 -0.00168862707128 148.377196766 -300 0 -300 0 1.62069240489e-05 179.989325764
24.4 -0.00172512489337 148.253907781 -300 0 -300 0 1.60877892301e-05 179.989280521
24.5 -0.00176048080021 148.130698638 -300 0 -300 0 1.59668242911e-05 179.989235292
24.6 -0.00179469075149 148.007569418 -300 0 -300 0 1.58440553651e-05 179.989190079
24.7 -0.00182775115549 147.884520202 -300 0 -300 0 1.57195083538e-05 179.98914488
24.8 -0.00185965886447 147.761551067 -300 0 -300 0 1.5593208916e-05 179.989099696
24.9 -0.00189041117006 147.638662093 -300 0 -300 0 1.54651824885e-05 179.989054527
25 -0.0019200057986 147.515853356 -300 0 -300 0 1.53354542806e-05 179.989009373
25.1 -0.00194844090647 147.393124933 -300 0 -300 0 1.52040492741e-05 179.988964233
25.2 -0.00197571507535 147.270476898 -300 0 -300 0 1.50709922463e-05 179.988919109
25.3 -0.00200182730752 147.147909327 -300 0 -300 0 1.4936307747e-05 179.988873999
25.4 -0.0020267770211 147.025422292 -300 0 -300 0 1.4800020131e-05 179.988828905
25.5 -0.00205056404526 146.903015866 -300 0 -300 0 1.46621535374e-05 179.988783825
25.6 -0.00207318861544 146.780690121 -300 0 -300 0 1.45227319159e-05 179.988738761
25.7 -0.00209465136852 146.658445129 -300 0 -300 0 1.43817790122e-05 179.988693712
25.8 -0.00211495333803 146.536280959 -300 0 -300 0 1.42393183846e-05 179.988648678
25.9 -0.00213409594926 146.414197681 -300 0 -300 0 1.40953733968e-05 179.988603659
26 -0.00215208101441 146.292195364 -300 0 -300 0 1.39499672387e-05 179.988558656
26.1 -0.00216891072776 146.170274077 -300 0 -300 0 1.38031229133e-05 179.988513668
26.2 -0.00218458766073 146.048433887 -300 0 -300 0 1.36548632462e-05 179.988468695
26.3 -0.00219911475702 145.926674862 -300 0 -300 0 1.35052108989e-05 179.988423737
26.4 -0.00221249532772 145.804997068 -300 0 -300 0 1.33541883556e-05 179.988378795
26.5 -0.00222473304634 145.683400572 -300 0 -300 0 1.32018179384e-05 179.988333868
26.6 -0.00223583194398 145.561885438 -300 0 -300 0 1.30481218095e-05 179.988288957
26.7 -0.00224579640432 145.440451732 -300 0 -300 0 1.28931219804e-05 179.988244061
26.8 -0.00225463115874 145.319099518 -300 0 -300 0 1.27368402949e-05 179.98819918
26.9 -0.00226234128141 145.197828862 -300 0 -300 0 1.2579298462e-05 179.988154315
27 -0.00226893218427 145.076639826 -300 0 -300 0 1.24205180343e-05 179.988109466
27.1 -0.00227440961219 144.955532475 -300 0 -300 0 1.22605204216e-05 179.988064632
27.2 -0.00227877963796 144.83450687 -300 0 -300 0 1.20993269026e-05 179.988019813
27.3 -0.00228204865738 144.713563076 -300 0 -300 0 1.19369586136e-05 179.987975011
27.4 -0.00228422338433 144.592701155 -300 0 -300 0 1.17734365611e-05 179.987930224
27.5 -0.0022853108458 144.471921168 -300 180 -300 180 1.16087816229e-05 179.987885452
27.6 -0.002285318377 144.351223178 -300 180 -300 180 1.14430145512e-05 179.987840696
27.7 -0.00228425361637 144.230607247 -300 180 -300 180 1.12761559786e-05 179.987795956
27.8 -0.00228212450071 144.110073437 -300 180 -300 180 1.11082264105e-05 179.987751232
27.9 -0.0022789392602 143.989621807 -300 180 -300 180 1.09392462443e-05 179.987706523
28 -0.00227470641354 143.869252421 -300 180 -300 180 1.07692357713e-05 179.98766183
28.1 -0.00226943476297 143.748965339 -300 180 -300 180 1.05982151612e-05 179.987617153
28.2 -0.00226313338941 143.628760622 -300 180 -300 180 1.04262044797e-05 179.987572491
28.3 -0.00225581164754 143.50863833 -300 180 -300 180 1.02532237038e-05 179.987527846
28.4 -0.0022474791609 143.388598526 -300 180 -300 180 1.00792926868e-05 179.987483216
28.5 -0.00223814581702 143.268641269 -300 180 -300 180 9.90443121491e-06 179.987438602
28.6 -0.00222782176252 143.14876662 -300 180 -300 180 9.72865895054e-06 179.987394003
28.7 -0.00221651739828 143.028974641 -300 180 -300 180 9.55199549072e-06 179.987349421
28.8 -0.00220424337453 142.909265391 -300 180 -300 180 9.37446033215e-06 179.987304855
28.9 -0.00219101058604 142.789638932 -300 180 -300 180 9.19607289245e-06 179.987260304
29 -0.00217683016725 142.670095325 -300 180 -300 180 9.01685250053e-06 179.987215769
29.1 -0.00216171348748 142.550634631 -300 180 -300 180 8.83681841973e-06 179.987171251
29.2 -0.00214567214608 142.43125691 -300 180 -300 180 8.65598981887e-06 179.987126748
29.3 -0.00212871796764 142.311962224 -300 180 -300 180 8.47438581472e-06 179.987082261
29.4 -0.00211086299721 142.192750635 -300 180 -300 180 8.29202543725e-06 179.98703779
29.5 -0.00209211949548 142.073622203 -300 180 -300 180 8.10892765663e-06 179.986993335
29.6 -0.00207249993407 141.954576991 -300 180 -300 180 7.92511138328e-06 179.986948896
29.7 -0.00205201699071 141.835615059 -300 180 -300 180 7.74059545429e-06 179.986904473
29.8 -0.00203068354457 141.716736471 -300 180 -300 180 7.55539865279e-06 179.986860065
29.9 -0.00200851267148 141.597941289 -300 180 -300 180 7.3695397098e-06 179.986815674
30 -0.00198551763925 141.479229575 -300 180 -300 180 7.18303729657e-06 179.986771299
30.1 -0.00196171190295 141.360601391 -300 180 -300 180 6.99591003422e-06 179.98672694
30.2 -0.00193710910025 141.242056802 -300 180 -300 180 6.80817649564e-06 179.986682597
30.3 -0.00191172304672 141.12359587 -300 180 -300 180 6.61985521128e-06 179.98663827
30.4 -0.00188556773123 141.005218659 -300 180 -300 180 6.43096465955e-06 179.986593958
30.5 -0.00185865731127 140.886925233 -300 180 -300 -180 6.24152328603e-06 179.986549663
30.6 -0.00183100610833 140.768715657 -300 -180 -300 -180 6.051549492e-06 179.986505384
30.7 -0.00180262860332 140.650589995 -300 -180 -300 -180 5.86106164589e-06 179.986461121
30.8 -0.00177353943198 140.532548312 -300 -180 -300 -180 5.67007808533e-06 179.986416874
30.9 -0.00174375338028 140.414590674 -300 -180 -300 -180 5.47861710356e-06 179.986372643
31 -0.00171328537989 140.296717147 -300 -180 -300 -180 5.28669697646e-06 179.986328428
31.1 -0.00168215050363 140.178927796 -300 -180 -300 -180 5.09433595294e-06 179.986284229
31.2 -0.00165036396098 140.06122269 -300 -180 -300 -180 4.90155225102e-06 179.986240046
31.3 -0.00161794109349 139.943601895 -300 -180 -300 -180 4.70836407139e-06 179.986195879
31.4 -0.00158489737041 139.826065479 -300 -180 -300 -180 4.51478959544e-06 179.986151728
31.5 -0.00155124838412 139.70861351 -300 -180 -300 -180 4.32084698142e-06 179.986107593
31.6 -0.00151700984573 139.591246056 -300 -180 -300 -180 4.12655437408e-06 179.986063474
31.7 -0.00148219758064 139.473963188 -300 -180 -300 -180 3.93192990853e-06 179.986019371
31.8 -0.00144682752411 139.356764974 -300 -180 -300 -180 3.73699171218e-06 179.985975285
31.9 -0.00141091571685 139.239651486 -300 -180 -300 -180 3.5417578912e-06 179.985931214
32 -0.00137447830067 139.122622793 -300 -180 -300 -180 3.34624655178e-06 179.985887159
32.1 -0.00133753151407 139.005678968 -300 -180 -300 -180 3.15047579817e-06 179.98584312
32.2 -0.00130009168796 138.888820082 -300 -180 -300 -180 2.95446372694e-06 179.985799097
32.3 -0.00126217524126 138.772046207 -300 -180 -300 -180 2.7582284404e-06 179.98575509
32.4 -0.00122379867663 138.655357418 -300 -180 -300 -180 2.56178803317e-06 179.985711099
32.5 -0.00118497857616 138.538753788 -300 -180 -300 -180 2.36516060761e-06 179.985667125
32.6 -0.00114573159713 138.422235391 -300 -180 -300 -180 2.16836427567e-06 179.985623166
32.7 -0.00110607446769 138.305802303 -300 -180 -300 -180 1.97141715514e-06 179.985579223
32.8 -0.00106602398268 138.189454598 -300 -180 -300 -180 1.77433736958e-06 179.985535296
32.9 -0.00102559699939 138.073192354 -300 -180 -300 -180 1.57714305217e-06 179.985491385
33 -0.000984810433335 137.957015648 -300 -180 -300 -180 1.37985235734e-06 179.985447489
33.1 -0.00094368125412 137.840924558 -300 -180 -300 -180 1.18248344916e-06 179.98540361
33.2 -0.000902226481217 137.724919161 -300 -180 -300 -180 9.85054507113e-07 179.985359747
33.3 -0.000860463179854 137.608999538 -300 -180 -300 -180 7.87583735772e-07 179.9853159
33.4 -0.000818408456884 137.493165767 -300 -180 -300 -180 5.90089355136e-07 179.985272068
33.5 -0.000776079456646 137.377417931 -300 -180 -300 -180 3.92589610277e-07 179.985228252
33.6 -0.000733493356908 137.261756109 -300 -180 -300 -180 1.95102769415e-07 179.985184453
33.7 -0.000690667364751 137.146180385 -300 -180 -300 -180 -2.35287319356e-09 179.985140669
33.8 -0.000647618712542 137.030690841 -300 -180 -300 -180 -1.99758995324e-07 179.985096901
33.9 -0.000604364653889 136.915287561 -300 -180 -300 -180 -3.97097244856e-07 179.985053148
34 -0.00056092245959 136.799970629 -300 -180 -300 -180 -5.94349238809e-07 179.985009412
34.1 -0.000517309413664 136.684740131 -300 -180 -300 -180 -7.91496560451e-07 179.984965691
34.2 -0.000473542809351 136.569596152 -300 -180 -300 -180 -9.88520757364e-07 179.984921986
34.3 -0.000429639945127 136.45453878 -300 -180 -300 -180 -1.18540334724e-06 179.984878297
34.4 -0.00038561812077 136.339568103 -300 -180 -300 -180 -1.38212579762e-06 179.984834624
34.5 -0.000341494633422 136.224684208 -300 -180 -300 -180 -1.57866954904e-06 179.984790966
34.6 -0.000297286773668 136.109887185 -300 -180 -300 -180 -1.77501599575e-06 179.984747324
34.7 -0.000253011821623 135.995177125 -300 -180 -300 -180 -1.97114648379e-06 179.984703698
34.8 -0.000208687043083 135.880554118 -300 -180 -300 -180 -2.16704232351e-06 179.984660087
34.9 -0.00016432968562 135.766018257 -300 -180 -300 -180 -2.36268477317e-06 179.984616492
35 -0.000119956974768 135.651569634 -300 -180 -300 -180 -2.55805504766e-06 179.984572913
35.1 -7.55861101529e-05 135.537208342 -300 -180 -300 -180 -2.75313430882e-06 179.984529349
35.2 -3.12342617196e-05 135.422934477 -300 -180 -300 -180 -2.94790367122e-06 179.984485801
35.3 1.30814340988e-05 135.308748134 -300 -180 -300 -180 -3.14234419836e-06 179.984442269
35.4 5.7343878152e-05 135.19464941 -300 -180 -300 -180 -3.33643689872e-06 179.984398751
35.5 0.000101536012324 135.0806384 -300 -180 -300 -180 -3.53016271621e-06 179.98435525
35.6 0.000145640823313 134.966715204 -300 -180 -300 -180 -3.72350255614e-06 179.984311764
35.7 0.000189641346333 134.852879921 -300 -180 -300 -180 -3.91643725344e-06 179.984268293
35.8 0.000233520668837 134.739132651 -300 -180 -300 -180 -4.10894758805e-06 179.984224838
35.9 0.000277261934239 134.625473494 -300 -180 -300 -180 -4.30101427822e-06 179.984181398
36 0.000320848345562 134.511902552 -300 -180 -300 -180 -4.49261797564e-06 179.984137974
36.1 0.000364263169134 134.398419929 -300 -180 -300 -180 -4.68373927992e-06 179.984094565
36.2 0.000407489738229 134.285025728 -300 -180 -300 -180 -4.87435871547e-06 179.984051171
36.3 0.000450511456697 134.171720054 -300 -180 -300 -180 -5.06445674207e-06 179.984007793
36.4 0.00049331180261 134.058503012 -300 -180 -300 -180 -5.2540137549e-06 179.983964429
36.5 0.000535874331822 133.945374709 -300 -180 -300 -180 -5.44301008066e-06 179.983921081
36.6 0.000578182681605 133.832335252 -300 -180 -300 -180 -5.63142597472e-06 179.983877749
36.7 0.000620220574196 133.71938475 -300 -180 -300 -180 -5.81924161814e-06 179.983834431
36.8 0.000661971820369 133.606523313 -300 -180 -300 -180 -6.0064371226e-06 179.983791129
36.9 0.00070342032296 133.493751052 -300 -180 -300 -180 -6.19299252453e-06 179.983747842
37 0.000744550080419 133.381068076 -300 -180 -300 -180 -6.37888778901e-06 179.98370457
37.1 0.000785345190323 133.2684745 -300 -180 -300 -180 -6.56410279625e-06 179.983661312
37.2 0.000825789852845 133.155970435 -300 -180 -300 -180 -6.74861735703e-06 179.98361807
37.3 0.000865868374276 133.043555998 -300 -180 -300 -180 -6.93241120112e-06 179.983574843
37.4 0.000905565170472 132.931231303 -300 -180 -300 -180 -7.11546397538e-06 179.983531631
37.5 0.000944864770315 132.818996466 -300 -180 -300 -180 -7.2977552466e-06 179.983488434
37.6 0.000983751819156 132.706851605 -300 -180 -300 -180 -7.47926450154e-06 179.983445251
37.7 0.00102221108224 132.594796839 -300 -180 -300 -180 -7.65997114307e-06 179.983402084
37.8 0.00106022744812 132.482832286 -300 -180 -300 -180 -7.83985448532e-06 179.983358931
37.9 0.00109778593205 132.370958068 -300 -180 -300 -180 -8.01889376337e-06 179.983315793
38 0.00113487167938 132.259174304 -300 -180 -300 -180 -8.19706811874e-06 179.98327267
38.1 0.00117146996891 132.147481119 -300 -180 -300 -180 -8.37435660808e-06 179.983229561
38.2 0.00120756621625 132.035878635 -300 -180 -300 -180 -8.55073820418e-06 179.983186468
38.3 0.00124314597718 131.924366976 -300 -180 -300 -180 -8.7261917766e-06 179.983143388
38.4 0.00127819495097 131.812946268 -300 -180 -300 -180 -8.90069611681e-06 179.983100324
38.5 0.00131269898368 131.701616638 -300 -180 -300 -180 -9.07422991503e-06 179.983057273
38.6 0.00134664407147 131.590378212 -300 -180 -300 -180 -9.24677177853e-06 179.983014238
38.7 0.0013800163639 131.479231119 -300 -180 -300 -180 -9.41830020852e-06 179.982971216
38.8 0.00141280216718 131.368175488 -300 -180 -300 -180 -9.5887936223e-06 179.98292821
38.9 0.00144498794747 131.25721145 -300 -180 -300 -180 -9.75823032723e-06 179.982885217
39 0.00147656033408 131.146339136 -300 -180 -300 -180 -9.92658855065e-06 179.982842239
39.1 0.00150750612274 131.035558679 -300 -180 -300 -180 -1.00938464071e-05 179.982799275
39.2 0.00153781227879 130.924870211 -300 -180 -300 -180 -1.02599819184e-05 179.982756325
39.3 0.00156746594043 130.814273868 -300 -180 -300 -180 -1.04249730091e-05 179.982713389
39.4 0.00159645442188 130.703769783 -300 -180 -300 -180 -1.05887974949e-05 179.982670468
39.5 0.00162476521657 130.593358094 -300 -180 -300 -180 -1.07514330966e-05 179.982627561
39.6 0.00165238600031 130.483038939 -300 -180 -300 -180 -1.09128574294e-05 179.982584667
39.7 0.00167930463445 130.372812454 -300 -180 -300 -180 -1.10730480088e-05 179.982541788
39.8 0.00170550916899 130.262678779 -300 -0 -300 -0 -1.12319822368e-05 179.982498922
39.9 0.00173098784578 130.152638055 -300 -0 -300 -0 -1.13896374215e-05 179.982456071
40 0.00175572910155 130.042690423 -300 -0 -300 -0 -1.15459907566e-05 179.982413233
40.1 0.00177972157107 129.932836024 -300 -0 -300 -0 -1.17010193306e-05 179.982370409
40.2 0.00180295409023 129.823075002 -300 -0 -300 -0 -1.18547001276e-05 179.982327599
40.3 0.00182541569908 129.713407501 -300 -0 -300 -0 -1.20070100163e-05 179.982284802
40.4 0.00184709564495 129.603833665 -300 -0 -300 -0 -1.2157925766e-05 179.982242019
40.5 0.00186798338546 129.494353641 -300 -0 -300 -0 -1.23074240272e-05 179.982199249
40.6 0.00188806859156 129.384967575 -300 -0 -300 -0 -1.24554813426e-05 179.982156493
40.7 0.00190734115056 129.275675615 -300 -0 -300 -0 -1.26020741401e-05 179.982113751
40.8 0.00192579116914 129.166477909 -300 -0 -300 -0 -1.27471787424e-05 179.982071021
40.9 0.00194340897636 129.057374608 -300 -0 -300 -0 -1.28907713556e-05 179.982028306
41 0.0019601851266 128.94836586 -300 -0 -300 -0 -1.30328280671e-05 179.981985603
41.1 0.00197611040258 128.839451819 -300 -0 -300 -0 -1.31733248565e-05 179.981942913
41.2 0.00199117581826 128.730632635 -300 -0 -300 -0 -1.33122375845e-05 179.981900237
41.3 0.00200537262185 128.621908462 -300 -0 -300 -0 -1.34495419972e-05 179.981857574
41.4 0.00201869229868 128.513279454 -300 -0 -300 -0 -1.35852137241e-05 179.981814924
41.5 0.00203112657411 128.404745765 -300 -0 -300 -0 -1.37192282759e-05 179.981772286
41.6 0.0020426674165 128.296307551 -300 -0 -300 -0 -1.38515610477e-05 179.981729662
41.7 0.00205330704001 128.187964969 -300 -0 -300 -0 -1.39821873131e-05 179.98168705
41.8 0.00206303790752 128.079718175 -300 -0 -300 -0 -1.41110822328e-05 179.981644451
41.9 0.00207185273347 127.971567328 -300 -0 -300 -0 -1.42382208392e-05 179.981601865
42 0.00207974448669 127.863512587 -300 -0 -300 -0 -1.43635780531e-05 179.981559291
42.1 0.00208670639326 127.755554111 -300 -0 -300 -0 -1.44871286638e-05 179.98151673
42.2 0.00209273193929 127.64769206 -300 -0 -300 -0 -1.46088473528e-05 179.981474182
42.3 0.00209781487371 127.539926596 -300 -0 -300 -0 -1.47287086685e-05 179.981431646
42.4 0.0021019492111 127.43225788 -300 -0 -300 -0 -1.48466870417e-05 179.981389122
42.5 0.00210512923437 127.324686075 -300 -0 -300 -0 -1.49627567787e-05 179.98134661
42.6 0.00210734949759 127.217211345 -300 -0 -300 -0 -1.50768920604e-05 179.981304111
42.7 0.00210860482868 127.109833853 -300 -0 -300 -0 -1.51890669493e-05 179.981261623
42.8 0.00210889033213 127.002553764 -300 0 -300 0 -1.52992553832e-05 179.981219148
42.9 0.00210820139167 126.895371243 -300 0 -300 0 -1.54074311652e-05 179.981176685
43 0.00210653367303 126.788286457 -300 0 -300 0 -1.55135679834e-05 179.981134233
43.1 0.00210388312651 126.681299572 -300 0 -300 0 -1.56176393978e-05 179.981091794
43.2 0.0021002459897 126.574410755 -300 0 -300 0 -1.57196188382e-05 179.981049366
43.3 0.00209561879005 126.467620174 -300 0 -300 0 -1.58194796147e-05 179.981006949
43.4 0.00208999834751 126.360927998 -300 0 -300 0 -1.59171949025e-05 179.980964545
43.5 0.00208338177713 126.254334395 -300 0 -300 0 -1.60127377534e-05 179.980922151
43.6 0.00207576649159 126.147839536 -300 0 -300 0 -1.61060810957e-05 179.98087977
43.7 0.00206715020379 126.041443589 -300 0 -300 0 -1.61971977169e-05 179.980837399
43.8 0.00205753092936 125.935146727 -300 0 -300 0 -1.62860602888e-05 179.98079504
43.9 0.00204690698918 125.828949119 -300 0 -300 0 -1.6372641355e-05 179.980752691
44 0.00203527701187 125.722850938 -300 0 -300 0 -1.64569133152e-05 179.980710354
44.1 0.00202263993625 125.616852355 -300 0 -300 0 -1.65388484567e-05 179.980668028
44.2 0.00200899501377 125.510953542 -300 0 -300 0 -1.66184189246e-05 179.980625713
44.3 0.001994341811 125.405154673 -300 0 -300 0 -1.66955967436e-05 179.980583408
44.4 0.00197868021195 125.299455921 -300 0 -300 0 -1.67703538045e-05 179.980541114
44.5 0.0019620104205 125.193857459 -300 0 -300 0 -1.6842661864e-05 179.980498831
44.6 0.00194433296272 125.088359461 -300 0 -300 0 -1.69124925504e-05 179.980456558
44.7 0.00192564868925 124.982962101 -300 0 -300 0 -1.69798173687e-05 179.980414296
44.8 0.00190595877754 124.877665554 -300 0 -300 0 -1.70446076812e-05 179.980372044
44.9 0.00188526473419 124.772469994 -300 0 -300 0 -1.71068347258e-05 179.980329802
45 0.00186356839714 124.667375595 -300 0 -300 0 -1.716646961e-05 179.98028757
45.1 0.00184087193795 124.562382535 -300 0 -300 0 -1.72234833046e-05 179.980245348
45.2 0.00181717786398 124.457490986 -300 0 -300 0 -1.72778466561e-05 179.980203136
45.3 0.00179248902053 124.352701125 -300 0 -300 0 -1.73295303698e-05 179.980160934
45.4 0.00176680859306 124.248013128 -300 0 -300 0 -1.73785050281e-05 179.980118742
45.5 0.00174014010918 124.143427169 -300 0 -300 0 -1.74247410749e-05 179.980076559
45.6 0.00171248744086 124.038943426 -300 0 -300 0 -1.74682088323e-05 179.980034386
45.7 0.00168385480638 123.934562072 -300 0 -300 0 -1.75088784819e-05 179.979992222
45.8 0.00165424677239 123.830283284 -300 0 -300 0 -1.75467200709e-05 179.979950067
45.9 0.00162366825593 123.726107238 -300 0 -300 0 -1.75817035217e-05 179.979907921
46 0.00159212452627 123.622034109 -300 0 -300 0 -1.76137986247e-05 179.979865785
46.1 0.00155962120696 123.518064073 -300 0 -300 0 -1.76429750363e-05 179.979823657
46.2 0.00152616427763 123.414197304 -300 0 -300 0 -1.76692022749e-05 179.979781538
46.3 0.00149176007584 123.310433979 -300 0 -300 0 -1.76924497396e-05 179.979739428
46.4 0.00145641529892 123.206774271 -300 0 -300 0 -1.77126866894e-05 179.979697326
46.5 0.0014201370057 123.103218356 -300 0 -300 0 -1.7729882256e-05 179.979655233
46.6 0.00138293261828 122.999766408 -300 0 -300 0 -1.77440054353e-05 179.979613148
46.7 0.00134480992369 122.896418602 -300 0 -300 0 -1.77550250969e-05 179.979571071
46.8 0.00130577707556 122.79317511 -300 0 -300 0 -1.77629099741e-05 179.979529003
46.9 0.0012658425957 122.690036107 -300 0 -300 0 -1.77676286743e-05 179.979486942
47 0.00122501537567 122.587001765 -300 0 -300 0 -1.77691496774e-05 179.979444889
47.1 0.00118330467836 122.484072256 -300 0 -300 0 -1.77674413225e-05 179.979402844
47.2 0.00114072013935 122.381247754 -300 0 -300 0 -1.77624718253e-05 179.979360806
47.3 0.00109727176842 122.278528428 -300 0 -300 0 -1.77542092684e-05 179.979318776
47.4 0.00105296995092 122.175914451 -300 0 -300 0 -1.7742621612e-05 179.979276753
47.5 0.00100782544906 122.073405992 -300 0 -300 0 -1.77276766793e-05 179.979234737
47.6 0.000961849403224 121.97100322 -300 0 -300 0 -1.77093421683e-05 179.979192728
47.7 0.00091505333319 121.868706305 -300 0 -300 0 -1.76875856514e-05 179.979150726
47.8 0.000867449139298 121.766515414 -300 0 -300 0 -1.76623745622e-05 179.97910873
47.9 0.000819049103554 121.664430715 -300 0 -300 0 -1.76336762198e-05 179.979066741
48 0.000769865890728 121.562452374 -300 0 -300 0 -1.76014578069e-05 179.979024759
48.1 0.000719912549351 121.460580556 -300 0 -300 0 -1.75656863852e-05 179.978982783
48.2 0.000669202512635 121.358815427 -300 0 -300 0 -1.75263288847e-05 179.978940813
48.3 0.000617749599379 121.25715715 -300 0 -300 0 -1.74833521164e-05 179.978898848
48.4 0.000565568014813 121.155605886 -300 0 -300 0 -1.74367227598e-05 179.97885689
48.5 0.00051267235134 121.054161798 -300 0 -300 0 -1.73864073719e-05 179.978814937
48.6 0.000459077589229 120.952825046 -300 0 -300 0 -1.73323723884e-05 179.97877299
48.7 0.000404799097271 120.851595789 -300 0 -300 0 -1.72745841176e-05 179.978731048
48.8 0.000349852633314 120.750474185 -300 0 -300 0 -1.72130087474e-05 179.978689111
48.9 0.000294254344789 120.64946039 -300 0 -300 0 -1.71476123401e-05 179.978647179
49 0.000238020769099 120.548554559 -300 0 -300 0 -1.70783608434e-05 179.978605252
49.1 0.000181168834 120.447756846 -300 0 -300 0 -1.70052200816e-05 179.978563329
49.2 0.000123715857864 120.347067404 -300 0 -300 0 -1.69281557508e-05 179.978521411
49.3 6.56795498633e-05 120.246486384 -300 0 -300 0 -1.68471334418e-05 179.978479497
49.4 7.07801012159e-06 120.146013934 -300 0 -300 0 -1.67621186163e-05 179.978437587
49.5 -5.20702702731e-05 120.045650202 -300 0 -300 0 -1.66730766241e-05 179.978395682
49.6 -0.000111746409299 119.945395334 -300 0 -300 0 -1.65799726965e-05 179.978353779
49.7 -0.000171931134124 119.845249474 -300 0 -300 0 -1.64827719509e-05 179.978311881
49.8 -0.000232604781337 119.745212766 -300 0 -300 0 -1.63814393862e-05 179.978269985
49.9 -0.000293747297211 119.645285348 -300 0 -300 0 -1.62759398932e-05 179.978228093
50 -0.00035533823813 119.54546736 -300 0 -300 0 -1.6166238248e-05 179.978186204
50.1 -0.000417356771059 119.445758939 -300 0 -300 0 -1.605229911e-05 179.978144317
50.2 -0.000479781674123 119.346160219 -300 0 -300 0 -1.59340870355e-05 179.978102433
50.3 -0.000542591337287 119.246671332 -300 0 -300 0 -1.58115664679e-05 179.978060552
50.4 -0.000605763763097 119.147292409 -300 0 -300 0 -1.56847017407e-05 179.978018672
50.5 -0.000669276567615 119.048023578 -300 0 -300 0 -1.55534570872e-05 179.977976794
50.6 -0.000733106981338 118.948864964 -300 0 -300 0 -1.54177966257e-05 179.977934918
50.7 -0.000797231850313 118.849816692 -300 0 -300 0 -1.52776843764e-05 179.977893044
50.8 -0.000861627637317 118.750878881 -300 0 -300 0 -1.51330842563e-05 179.97785117
50.9 -0.000926270423175 118.652051651 -300 0 -300 0 -1.49839600782e-05 179.977809298
51 -0.000991135908148 118.553335117 -300 0 -300 0 -1.48302755575e-05 179.977767427
51.1 -0.00105619941348 118.454729393 -300 0 -300 0 -1.46719943055e-05 179.977725556
51.2 -0.00112143588307 118.356234589 -300 0 -300 0 -1.45090798418e-05 179.977683685
51.3 -0.00118681988517 118.257850813 -300 0 -300 0 -1.43414955926e-05 179.977641815
51.4 -0.00125232561438 118.15957817 -300 0 -300 0 -1.41692048781e-05 179.977599944
51.5 -0.00131792689354 118.061416762 -300 0 -300 0 -1.39921709372e-05 179.977558073
51.6 -0.00138359717602 117.963366688 -300 0 -300 0 -1.38103569175e-05 179.977516201
51.7 -0.00144930954784 117.865428043 -300 0 -300 0 -1.36237258682e-05 179.977474328
51.8 -0.00151503673024 117.767600921 -300 0 -300 0 -1.3432240764e-05 179.977432454
51.9 -0.0015807510821 117.669885412 -300 0 -300 0 -1.32358644865e-05 179.977390579
52 -0.00164642460271 117.572281601 -300 180 -300 180 -1.30345598379e-05 179.977348702
52.1 -0.00171202893454 117.474789571 -300 180 -300 180 -1.28282895318e-05 179.977306823
52.2 -0.00177753536628 117.377409402 -300 180 -300 180 -1.26170162115e-05 179.977264941
52.3 -0.00184291483588 117.28014117 -300 180 -300 180 -1.24007024381e-05 179.977223057
52.4 -0.00190813793392 117.182984948 -300 180 -300 180 -1.21793107016e-05 179.977181171
52.5 -0.00197317490698 117.085940803 -300 180 -300 180 -1.19528034119e-05 179.977139281
52.6 -0.0020379956612 116.989008801 -300 180 -300 180 -1.17211429221e-05 179.977097388
52.7 -0.00210256976611 116.892189003 -300 180 -300 180 -1.14842914972e-05 179.977055491
52.8 -0.0021668664585 116.795481467 -300 180 -300 180 -1.12422113565e-05 179.97701359
52.9 -0.00223085464646 116.698886244 -300 180 -300 180 -1.09948646465e-05 179.976971684
53 -0.00229450291369 116.602403385 -300 180 -300 180 -1.07422134531e-05 179.976929774
53.1 -0.00235777952391 116.506032934 -300 180 -300 180 -1.04842198074e-05 179.97688786
53.2 -0.0024206524254 116.409774932 -300 180 -300 180 -1.02208456796e-05 179.976845939
53.3 -0.00248308925585 116.313629415 -300 180 -300 180 -9.95205299757e-06 179.976804014
53.4 -0.0025450573473 116.217596415 -300 180 -300 180 -9.67780363318e-06 179.976762082
53.5 -0.00260652373128 116.121675959 -300 180 -300 180 -9.39805941113e-06 179.976720144
53.6 -0.00266745514412 116.025868071 -300 180 -300 180 -9.11278212139e-06 179.976678199
53.7 -0.00272781803257 115.930172769 -300 180 -300 180 -8.82193349708e-06 179.976636248
53.8 -0.00278757855944 115.834590065 -300 180 -300 180 -8.5254752549e-06 179.976594289
53.9 -0.00284670260957 115.739119969 -300 180 -300 180 -8.22336906531e-06 179.976552322
54 -0.00290515579597 115.643762483 -300 180 -300 180 -7.91557657563e-06 179.976510348
54.1 -0.00296290346614 115.548517607 -300 180 -300 180 -7.60205939945e-06 179.976468365
54.2 -0.00301991070867 115.453385334 -300 180 -300 180 -7.2827791359e-06 179.976426373
54.3 -0.00307614235997 115.358365652 -300 180 -300 180 -6.95769735908e-06 179.976384372
54.4 -0.00313156301125 115.263458544 -300 180 -300 180 -6.62677563344e-06 179.976342361
54.5 -0.0031861370158 115.168663988 -300 180 -300 180 -6.2899755138e-06 179.97630034
54.6 -0.00323982849634 115.073981956 -300 180 -300 180 -5.94725853671e-06 179.976258309
54.7 -0.00329260135276 114.979412414 -300 180 -300 180 -5.59858625221e-06 179.976216267
54.8 -0.00334441927001 114.884955324 -300 180 -300 180 -5.24392020456e-06 179.976174214
54.9 -0.00339524572619 114.790610639 -300 180 -300 180 -4.88322194194e-06 179.97613215
55 -0.00344504400101 114.696378311 -300 -180 -300 180 -4.51645303084e-06 179.976090073
55.1 -0.00349377718439 114.602258282 -300 -180 -300 -180 -4.14357505126e-06 179.976047983
55.2 -0.00354140818529 114.508250489 -300 -180 -300 -180 -3.76454959772e-06 179.976005881
55.3 -0.00358789974096 114.414354863 -300 -180 -300 -180 -3.37933831101e-06 179.975963765
55.4 -0.00363321442618 114.320571331 -300 -180 -300 -180 -2.98790283583e-06 179.975921636
55.5 -0.00367731466305 114.22689981 -300 -180 -300 -180 -2.59020487764e-06 179.975879492
55.6 -0.00372016273084 114.133340214 -300 -180 -300 -180 -2.18620617276e-06 179.975837333
55.7 -0.00376172077616 114.039892447 -300 -180 -300 -180 -1.77586850673e-06 179.975795158
55.8 -0.00380195082347 113.94655641 -300 -180 -300 -180 -1.35915372781e-06 179.975752968
55.9 -0.00384081478579 113.853331994 -300 -180 -300 -180 -9.36023729561e-07 179.975710762
56 -0.00387827447573 113.760219087 -300 -180 -300 -180 -5.06440494324e-07 179.975668539
56.1 -0.00391429161679 113.667217567 -300 -180 -300 -180 -7.03660574797e-08 179.975626298
56.2 -0.00394882785497 113.574327306 -300 -180 -300 -180 3.7223745299e-07 179.975584039
56.3 -0.00398184477061 113.481548169 -300 -180 -300 -180 8.21407825185e-07 179.975541762
56.4 -0.00401330389063 113.388880016 -300 -180 -300 -180 1.27718274978e-06 179.975499466
56.5 -0.00404316670103 113.296322695 -300 -180 -300 -180 1.73959982486e-06 179.975457151
56.6 -0.00407139465958 113.203876052 -300 -180 -300 -180 2.20869652312e-06 179.975414815
56.7 -0.00409794920905 113.111539922 -300 -180 -300 -180 2.68451021309e-06 179.975372458
56.8 -0.00412279179056 113.019314134 -300 -180 -300 -180 3.16707813018e-06 179.975330081
56.9 -0.00414588385728 112.927198508 -300 -180 -300 -180 3.65643737672e-06 179.975287681
57 -0.0041671868886 112.83519286 -300 -180 -300 -180 4.15262491228e-06 179.975245259
57.1 -0.00418666240438 112.743296994 -300 -180 -300 -180 4.65567754599e-06 179.975202813
57.2 -0.00420427197974 112.651510708 -300 -180 -300 -180 5.16563192301e-06 179.975160344
57.3 -0.00421997726006 112.559833793 -300 -180 -300 -180 5.68252452066e-06 179.975117851
57.4 -0.00423373997638 112.46826603 -300 -180 -300 -180 6.20639162726e-06 179.975075332
57.5 -0.00424552196115 112.376807194 -300 -180 -300 -180 6.7372693498e-06 179.975032788
57.6 -0.00425528516424 112.285457051 -300 -180 -300 -180 7.27519359273e-06 179.974990217
57.7 -0.00426299166938 112.194215357 -300 -180 -300 -180 7.82020004061e-06 179.974947619
57.8 -0.0042686037109 112.103081862 -300 -180 -300 -180 8.37232415618e-06 179.974904994
57.9 -0.00427208369092 112.012056308 -300 -180 -300 -180 8.93160117265e-06 179.974862339
58 -0.00427339419673 111.921138426 -300 -180 -300 -180 9.49806607246e-06 179.974819656
58.1 -0.00427249801872 111.830327941 -300 -180 -300 -180 1.00717535757e-05 179.974776943
58.2 -0.00426935816855 111.739624567 -300 -180 -300 -180 1.06526981249e-05 179.974734199
58.3 -0.00426393789773 111.649028011 -300 -180 -300 -180 1.12409338922e-05 179.974691423
58.4 -0.00425620071657 111.558537971 -300 -180 -300 -180 1.18364947298e-05 179.974648615
58.5 -0.00424611041353 111.468154136 -300 -180 -300 -180 1.2439414193e-05 179.974605774
58.6 -0.00423363107492 111.377876185 -300 -180 -300 -180 1.3049725501e-05 179.974562899
58.7 -0.00421872710497 111.28770379 -300 -180 -300 -180 1.36674615244e-05 179.974519989
58.8 -0.00420136324633 111.197636612 -300 -180 -300 -180 1.42926547825e-05 179.974477044
58.9 -0.00418150460093 111.107674304 -300 -180 -300 -180 1.49253374069e-05 179.974434063
59 -0.00415911665124 111.017816509 -300 -180 -300 -180 1.55655411512e-05 179.974391044
59.1 -0.00413416528194 110.928062862 -300 -180 -300 -180 1.62132973486e-05 179.974347986
59.2 -0.00410661680194 110.838412988 -300 -180 -300 -180 1.6868636906e-05 179.97430489
59.3 -0.00407643796683 110.748866503 -300 -180 -300 -180 1.75315902807e-05 179.974261754
59.4 -0.00404359600177 110.659423011 -300 -180 -300 -180 1.82021874752e-05 179.974218577
59.5 -0.00400805862473 110.570082111 -300 -180 -300 -180 1.88804579902e-05 179.974175358
59.6 -0.00396979407014 110.480843389 -300 -180 -300 -180 1.95664308308e-05 179.974132096
59.7 -0.00392877111295 110.391706423 -300 -180 -300 -180 2.02601344697e-05 179.974088791
59.8 -0.00388495909318 110.302670781 -300 -180 -300 -180 2.09615968282e-05 179.97404544
59.9 -0.00383832794079 110.213736021 -300 -180 -300 -180 2.16708452584e-05 179.974002044
60 -0.0037888482009 110.124901691 -300 -180 -300 -180 2.23879065125e-05 179.9739586
60.1 -0.00373649105973 110.03616733 -300 -180 -300 -180 2.31128067181e-05 179.973915109
60.2 -0.0036812283705 109.947532467 -300 -180 -300 -180 2.38455713661e-05 179.973871569
60.3 -0.00362303268018 109.858996622 -300 -180 -300 -180 2.45862252665e-05 179.973827978
60.4 -0.0035618772564 109.770559304 -300 -180 -300 -180 2.53347925312e-05 179.973784336
60.5 -0.00349773611486 109.682220012 -300 -180 -300 -180 2.60912965411e-05 179.973740642
60.6 -0.00343058404719 109.593978236 -300 -180 -300 -180 2.68557599211e-05 179.973696894
60.7 -0.00336039664914 109.505833455 -300 -180 -300 -180 2.7628204509e-05 179.973653092
60.8 -0.00328715034934 109.417785139 -300 -180 -300 -180 2.84086513251e-05 179.973609233
60.9 -0.00321082243834 109.329832749 -300 -180 -300 -180 2.91971205272e-05 179.973565317
61 -0.00313139109808 109.241975734 -300 -180 -300 -180 2.99936314037e-05 179.973521343
61.1 -0.00304883543197 109.154213533 -300 -180 -300 -180 3.07982023071e-05 179.973477309
61.2 -0.00296313549512 109.066545577 -300 -180 -300 -180 3.16108506414e-05 179.973433214
61.3 -0.00287427232518 108.978971287 -300 -180 -300 -180 3.24315928151e-05 179.973389056
61.4 -0.00278222797356 108.891490071 -300 -180 -300 -180 3.32604442029e-05 179.973344835
61.5 -0.00268698553701 108.804101331 -300 -180 -300 -180 3.40974191094e-05 179.973300549
61.6 -0.00258852918971 108.716804457 -300 -180 -300 -180 3.49425307087e-05 179.973256196
61.7 -0.0024868442156 108.629598829 -300 -180 -300 -180 3.57957910428e-05 179.973211775
61.8 -0.0023819170415 108.542483818 -300 -180 -300 -180 3.66572109232e-05 179.973167285
61.9 -0.00227373527012 108.455458785 -300 -180 -300 -180 3.75267999309e-05 179.973122724
62 -0.00216228771385 108.36852308 -300 -180 -300 -180 3.84045663374e-05 179.97307809
62.1 -0.00204756442895 108.281676046 -300 -180 -300 -180 3.92905170698e-05 179.973033383
62.2 -0.00192955674988 108.194917014 -300 -180 -300 -180 4.01846576531e-05 179.9729886
62.3 -0.00180825732438 108.108245307 -300 -180 -300 -180 4.10869921562e-05 179.97294374
62.4 -0.00168366014854 108.021660236 -300 -180 -300 -180 4.19975231474e-05 179.972898801
62.5 -0.00155576060264 107.935161104 -300 -180 -300 -180 4.29162516116e-05 179.972853782
62.6 -0.00142455548724 107.848747206 -300 -180 -300 -180 4.38431769194e-05 179.972808681
62.7 -0.00129004305954 107.762417826 -300 -180 -300 -180 4.47782967382e-05 179.972763496
62.8 -0.00115222307019 107.676172239 -300 -180 -300 -180 4.57216069865e-05 179.972718226
62.9 -0.00101109680062 107.59000971 -300 -180 -300 -180 4.66731017599e-05 179.972672868
63 -0.000866667100513 107.503929498 -300 -180 -300 -180 4.76327732621e-05 179.972627421
63.1 -0.000718938425628 107.417930849 -300 -180 -300 -180 4.86006117275e-05 179.972581883
63.2 -0.000567916876358 107.332013002 -300 -180 -300 -180 4.95766053481e-05 179.972536252
63.3 -0.000413610236138 107.246175189 -300 -180 -300 -180 5.05607402042e-05 179.972490526
63.4 -0.000256028010358 107.160416631 -300 -180 -300 -180 5.15530001792e-05 179.972444704
63.5 -9.51814658731e-05 107.074736541 -300 -180 -300 -180 5.25533668594e-05 179.972398782
63.6 6.89163295543e-05 106.989134124 -300 -180 -300 -180 5.35618194725e-05 179.97235276
63.7 0.000236250467303 106.903608578 -300 -180 -300 -180 5.45783347813e-05 179.972306634
63.8 0.000406804157613 106.81815909 -300 -180 -300 -180 5.56028869912e-05 179.972260404
63.9 0.000580558689095 106.732784843 -300 -180 -300 -180 5.66354476559e-05 179.972214066
64 0.000757493387795 106.647485009 -300 -180 -300 -180 5.76759855765e-05 179.972167619
64.1 0.000937585576451 106.562258754 -300 -180 -300 -0 5.87244666905e-05 179.97212106
64.2 0.00112081053271 106.477105237 -300 -0 -300 -0 5.97808539651e-05 179.972074388
64.3 0.00130714144781 106.392023608 -300 -0 -300 -0 6.08451072855e-05 179.972027598
64.4 0.00149654938476 106.307013014 -300 -0 -300 -0 6.19171833392e-05 179.97198069
64.5 0.00168900323597 106.222072591 -300 -0 -300 -0 6.29970354868e-05 179.971933661
64.6 0.00188446968136 106.137201472 -300 -0 -300 -0 6.40846136349e-05 179.971886509
64.7 0.00208291314564 106.052398781 -300 -0 -300 -0 6.51798641064e-05 179.97183923
64.8 0.00228429575565 105.967663637 -300 -0 -300 -0 6.62827295079e-05 179.971791822
64.9 0.0024885772977 105.882995154 -300 -0 -300 -0 6.73931485733e-05 179.971744283
65 0.0026957151743 105.79839244 -300 -0 -300 -0 6.85110560306e-05 179.97169661
65.1 0.0029056643612 105.713854599 -300 -0 -300 -0 6.96363824343e-05 179.9716488
65.2 0.00311837736419 105.629380728 -300 -0 -300 -0 7.07690540189e-05 179.971600851
65.3 0.00333380417556 105.54496992 -300 -0 -300 -0 7.19089925114e-05 179.971552759
65.4 0.00355189223065 105.460621265 -300 -0 -300 -0 7.30561149854e-05 179.971504522
65.5 0.00377258636452 105.376333848 -300 -0 -300 -0 7.4210333652e-05 179.971456136
65.6 0.00399582876819 105.29210675 -300 -0 -300 -0 7.53715556947e-05 179.9714076
65.7 0.00422155894493 105.20793905 -300 -0 -300 -0 7.65396830684e-05 179.971358909
65.8 0.00444971366685 105.123829823 -300 -0 -300 -0 7.77146122872e-05 179.97131006
65.9 0.00468022693129 105.039778141 -300 -0 -300 -0 7.88962342282e-05 179.971261051
66 0.00491302991686 104.955783076 -300 -0 -300 -0 8.00844339031e-05 179.971211878
66.1 0.00514805094029 104.871843696 -300 -0 -300 -0 8.12790902372e-05 179.971162538
66.2 0.00538521541279 104.787959068 -300 -0 -300 -0 8.2480075822e-05 179.971113027
66.3 0.00562444579669 104.704128258 -300 -0 -300 -0 8.36872566843e-05 179.971063342
66.4 0.00586566156202 104.620350332 -300 -0 -300 -0 8.49004920192e-05 179.97101348
66.5 0.00610877914377 104.536624355 -300 -0 -300 -0 8.61196339289e-05 179.970963437
66.6 0.00635371189861 104.452949394 -300 -0 -300 -0 8.73445271364e-05 179.970913208
66.7 0.00660037006212 104.369324514 -300 -0 -300 -0 8.85750087139e-05 179.970862792
66.8 0.00684866070665 104.285748783 -300 -0 -300 -0 8.98109077705e-05 179.970812183
66.9 0.00709848769864 104.202221271 -300 -0 -300 -0 9.10520451432e-05 179.970761377
67 0.00734975165673 104.118741049 -300 -0 -300 -0 9.22982330792e-05 179.970710372
67.1 0.00760234991019 104.035307192 -300 -0 -300 0 9.35492748847e-05 179.970659162
67.2 0.00785617645758 103.951918778 -300 0 -300 0 9.48049645889e-05 179.970607744
67.3 0.00811112192556 103.868574887 -300 0 -300 0 9.60650865687e-05 179.970556114
67.4 0.00836707352847 103.785274605 -300 0 -300 0 9.7329415174e-05 179.970504267
67.5 0.00862391502828 103.702017024 -300 0 -300 0 9.85977143267e-05 179.970452199
67.6 0.00888152669476 103.618801239 -300 0 -300 0 9.98697371195e-05 179.970399905
67.7 0.0091397852664 103.535626352 -300 0 -300 0 0.000101145225374 179.970347381
67.8 0.00939856391167 103.452491473 -300 0 -300 0 0.000102423909205 179.970294623
67.9 0.00965773219111 103.369395718 -300 0 -300 0 0.000103705506553 179.970241625
68 0.00991715601982 103.286338211 -300 0 -300 0 0.000104989722703 179.970188382
68.1 0.0101766976307 103.203318086 -300 0 -300 0 0.000106276249775 179.970134891
68.2 0.010436215538 103.120334484 -300 0 -300 0 0.000107564766211 179.970081146
68.3 0.0106955645025 103.037386558 -300 0 -300 0 0.000108854936223 179.970027141
68.4 0.0109545954967 102.954473472 -300 0 -300 0 0.000110146409232 179.969972872
68.5 0.0112131556706 102.871594399 -300 0 -300 0 0.000111438819268 179.969918334
68.6 0.0114710883193 102.788748527 -300 0 -300 0 0.000112731784364 179.96986352
68.7 0.0117282328506 102.705935055 -300 0 -300 0 0.000114024905919 179.969808426
68.8 0.0119844247539 102.623153197 -300 0 -300 0 0.000115317768014 179.969753046
68.9 0.0122394955702 102.540402181 -300 0 -300 0 0.00011660993674 179.969697374
69 0.0124932728629 102.45768125 -300 0 -300 0 0.000117900959466 179.969641404
69.1 0.0127455801898 102.374989663 -300 0 -300 0 0.000119190364081 179.969585131
69.2 0.0129962370762 102.292326697 -300 0 -300 0 0.000120477658223 179.969528548
69.3 0.013245058989 102.209691647 -300 0 -300 0 0.000121762328447 179.969471649
69.4 0.0134918573123 102.127083824 -300 0 -300 0 0.000123043839404 179.969414428
69.5 0.0137364393245 102.044502563 -300 0 -300 0 0.000124321632925 179.969356878
69.6 0.0139786081759 101.961947215 -300 0 -300 0 0.000125595127115 179.969298994
69.7 0.0142181628685 101.879417156 -300 0 -300 0 0.000126863715397 179.969240768
69.8 0.0144548982369 101.796911782 -300 0 -300 0 0.000128126765506 179.969182193
69.9 0.0146886049307 101.714430514 -300 0 -300 0 0.000129383618457 179.969123263
70 0.0149190693986 101.631972796 -300 0 -300 0 0.000130633587454 179.969063971
