# GHz S DB R 50
1 0.00360478164982 179.999505761 -300 -180
1.0975 0.00674279379007 -179.941466981 -300 -180
1.195 0.00485211296739 179.958006676 -300 180
1.2925 0.0061119963244 -179.997118078 -300 -180
1.39 0.0140164665028 -179.873344098 -300 -180
1.4875 0.00751267757105 179.945644374 -300 180
1.585 0.00939514073211 -179.990246874 -300 -180
1.6825 0.0331090419727 -179.740197841 -300 -180
1.78 0.0108078689563 179.934079351 -300 -180
1.8775 0.0135983472404 -179.978921028 -300 -180
1.975 0.101974518379 -179.598813845 -300 -180
2.0725 0.0147115415833 179.924584969 -300 -180
2.17 0.0188586373803 -179.960632455 -300 -180
2.2675 0.177759951336 179.591607917 -300 -180
2.365 0.0193893993396 179.916172659 -300 -180
2.4625 0.0255925723549 -179.93493003 -300 -180
2.56 0.0933799886974 179.248477141 -300 -180
2.6575 0.0247131537613 179.910458156 -300 -180
2.755 0.0340771018291 -179.898451406 -300 -180
2.8525 0.061592951154 179.3243332 -300 -180
2.95 0.030953727137 179.907784171 -300 -180
3.0475 0.0452985692203 -179.848083963 -300 -180
3.145 0.0532023564221 179.384887899 -300 -180
3.2425 0.0381109415829 179.908217891 -300 -180
3.34 0.060519048811 -179.780764119 -300 -180
3.4375 0.052840169334 179.419921171 -300 -180
3.535 0.046384284654 179.911980341 -300 -180
3.6325 0.0822229003055 -179.695554542 -300 -180
3.73 0.0558743960397 179.440644716 -300 -180
3.8275 0.0558389090821 179.92065858 -300 -180
3.925 0.114558300328 -179.594187053 -300 -180
4.0225 0.061174143265 179.451532052 -300 -180
4.12 0.0668022072815 179.933660054 -300 -180
4.2175 0.164663272814 -179.505571782 -300 -180
4.315 0.0679998094337 179.457022116 -300 -180
4.4125 0.079533792167 179.951396247 -300 -180
4.51 0.240075345789 -179.5256369 -300 -180
4.6075 0.0761415824724 179.460517277 -300 -180
4.705 0.0945127316932 179.975250396 -300 -180
4.8025 0.332165888732 -179.860532862 -300 -180
4.9 0.0854422182333 179.461665508 -300 -180
4.9975 0.112146516373 -179.995674727 -300 -180
5.095 0.384527443106 179.399053875 -300 -180
5.1925 0.0960658152221 179.462281676 -300 -180
5.29 0.133319837044 -179.96160268 -300 -0
5.3875 0.356750264326 178.67974012 -300 -180
5.485 0.108031031002 179.461542811 -300 -180
5.5825 0.158955217022 -179.92663204 -300 -0
5.68 0.295847324848 178.329801046 -300 -180
5.7775 0.121287391636 179.46232722 -300 -180
5.875 0.190230289177 -179.892458494 -300 -0
5.9725 0.247331547806 178.24308476 -300 -180
6.07 0.136206425467 179.463660116 -300 -180
6.1675 0.228933026438 -179.868937351 -300 -0
6.265 0.217826640834 178.257610974 -300 -180
6.3625 0.152857409397 179.464727033 -300 -0
6.46 0.27656342084 -179.874034081 -300 -0
6.5575 0.20246767738 178.300133434 -300 -180
6.655 0.17146860423 179.465724357 -300 -0
6.7525 0.33410901581 -179.936780646 -300 -0
6.85 0.196587411294 178.344092531 -300 -180
6.9475 0.192294963555 179.466340483 -300 -0
7.045 0.400171698671 179.900485062 -300 0
7.1425 0.197526544518 178.381235136 -300 -180
7.24 0.216042088236 179.464161838 -300 -0
7.3375 0.468604217794 179.58129499 -300 0
7.435 0.20258552648 178.409244662 -300 -0
7.5325 0.242526552238 179.458879418 -300 -0
7.63 0.525086468998 179.089277645 -300 0
7.7275 0.211514942489 178.429684108 -300 -0
7.825 0.272749604862 179.446779166 -300 0
7.9225 0.553535422347 178.47201536 -300 0
8.02 0.223298895588 178.442358691 -300 -0
8.1175 0.307032525611 179.423751348 -300 0
8.215 0.546603036608 177.860472982 -300 0
8.3125 0.237673725434 178.447969536 -300 -0
8.41 0.345952865897 179.383126078 -300 0
8.5075 0.513045369405 177.376983995 -300 0
8.605 0.254296753526 178.446272211 -300 0
8.7025 0.389620036323 179.31528773 -300 0
8.8 0.469048582229 177.067363625 -300 0
8.8975 0.273085253517 178.439582481 -300 0
8.995 0.438081129089 179.211321416 -300 0
9.0925 0.428541680636 176.905133057 -300 0
9.19 0.294541698492 178.425741828 -300 0
9.2875 0.491124422164 179.05239879 -300 0
9.385 0.396943143402 176.836121293 -300 0
9.4825 0.318480354252 178.403241679 -300 0
9.58 0.546695336513 178.819082908 -300 0
9.6775 0.374987835347 176.82076511 -300 0
9.775 0.344943860466 178.373082954 -300 0
9.8725 0.601552094932 178.497545395 -300 0
9.97 0.36219304486 176.829828047 -300 0
10.0675 0.374130695377 178.331591087 -300 0
10.165 0.650199462699 178.078067934 -300 0
10.2625 0.356860340116 176.848053521 -300 0
10.36 0.406102786564 178.277122196 -300 0
10.4575 0.686078440854 177.573422029 -300 0
10.555 0.35789748327 176.86681499 -300 0
10.6525 0.441205127057 178.205862337 -300 0
10.75 0.703606775309 177.017731888 -300 0
10.8475 0.364120064344 176.880017288 -300 0
10.945 0.479420835093 178.112346349 -300 0
11.0425 0.700105540391 176.466046271 -300 0
11.14 0.374608274426 176.886004737 -300 0
11.2375 0.520709209728 177.991695519 -300 0
11.335 0.67821788225 175.975623933 -300 0
11.4325 0.388753365177 176.882193251 -300 0
11.53 0.564606618307 177.836381876 -300 0
11.6275 0.644158978193 175.586237544 -300 0
11.725 0.406215328378 176.868307454 -300 0
11.8225 0.610518118079 177.638875476 -300 0
11.92 0.605680336637 175.308641619 -300 0
12.0175 0.426858388536 176.842327506 -300 0
12.115 0.657245757906 177.388610945 -300 0
12.2125 0.56853202545 175.131070831 -300 0
12.31 0.45039429392 176.805518369 -300 0
12.4075 0.703259418637 177.08044305 -300 0
12.505 0.5371243807 175.02845867 -300 0
12.6025 0.47665984859 176.753524105 -300 0
12.7 0.745617566853 176.707731752 -300 0
12.7975 0.512854521171 174.978876675 -300 0
12.895 0.505557566252 176.68626963 -300 0
12.9925 0.781265501717 176.27354963 -300 0
13.09 0.496350345491 174.961385485 -300 0
13.1875 0.537093284493 176.600080492 -300 0
13.285 0.806638622639 175.786643215 -300 0
13.3825 0.486918973766 174.960960922 -300 0
13.48 0.570992242467 176.492999659 -300 0
13.5775 0.818739463555 175.270149965 -300 0
13.675 0.484034193093 174.96779965 -300 0
13.7725 0.607273026995 176.361808147 -300 180
13.87 0.816341690772 174.753245793 -300 180
13.9675 0.486873861037 174.972344164 -300 0
14.065 0.645359027762 176.201028812 -300 180
14.1625 0.799651463749 174.271040454 -300 180
14.26 0.494869809222 174.971552332 -300 0
14.3575 0.685036899546 176.005763627 -300 180
14.455 0.77138985299 173.850442009 -300 180
14.5525 0.507102391837 174.961830215 -300 180
14.65 0.725366453722 175.7725683 -300 180
14.7475 0.735945349609 173.512018527 -300 180
14.845 0.523326471733 174.940584089 -300 180
14.9425 0.765481996281 175.495863058 -300 180
15.04 0.697927184161 173.258692284 -300 180
15.1375 0.542943942846 174.904686548 -300 180
15.235 0.803601065452 175.172021489 -300 180
15.3325 0.661280371628 173.087248003 -300 180
15.43 0.566007451121 174.854044255 -300 180
15.5275 0.83848205768 174.798262482 -300 -180
15.625 0.628858447757 172.979138873 -300 180
15.7225 0.591708442008 174.785074725 -300 180
15.82 0.867388622901 174.378191599 -300 -180
15.9175 0.602448679761 172.922211772 -300 180
16.015 0.620092094055 174.697202193 -300 -180
16.1125 0.888417945608 173.919141171 -300 -180
16.21 0.583014512818 172.898720111 -300 -180
16.3075 0.650847051445 174.585948722 -300 -180
16.405 0.89910721653 173.433031011 -300 -180
16.5025 0.570409055916 172.897566994 -300 -180
16.6 0.683878116113 174.450583177 -300 -180
16.6975 0.898483072338 172.938101212 -300 -180
16.795 0.564229779321 172.904823043 -300 -180
16.8925 0.718411241258 174.286858077 -300 -180
16.99 0.88576789153 172.459365661 -300 -180
17.0875 0.564074101585 172.914703039 -300 -180
17.185 0.754152796812 174.092381008 -300 -180
17.2825 0.862255550846 172.020685604 -300 -180
17.38 0.569600643559 172.919655185 -300 -180
17.4775 0.790541292418 173.86090936 -300 -180
17.575 0.82974363814 171.639048229 -300 -180
17.6725 0.579675469887 172.916550545 -300 -180
17.77 0.826435437751 173.592803204 -300 -180
17.8675 0.791896210197 171.331721574 -300 -180
17.965 0.594414793384 172.901336905 -300 -180
18.0625 0.861126423486 173.282192379 -300 -180
18.16 0.751957158162 171.098576832 -300 -180
18.2575 0.612859120328 172.870721094 -300 -180
18.355 0.892854236566 172.929396627 -300 -180
18.4525 0.713304669447 170.938951886 -300 -180
18.55 0.634971662842 172.822660615 -300 -180
18.6475 0.920268370099 172.533098564 -300 -180
18.745 0.678249899082 170.840372452 -300 -180
18.8425 0.659923022442 172.755038412 -300 -180
18.94 0.941219111677 172.10029836 -300 -180
19.0375 0.648961818447 170.793421237 -300 -180
19.135 0.687868579327 172.665362379 -300 -180
19.2325 0.95420587262 171.636313377 -300 -180
19.33 0.626217142654 170.782054919 -300 -180
19.4275 0.718212992342 172.550699991 -300 -180
19.525 0.957462967926 171.154293528 -300 -180
19.6225 0.610416144001 170.794171605 -300 -180
19.72 0.7506044432 172.407833103 -300 -180
19.8175 0.949799321705 170.67011636 -300 -180
19.915 0.601207536755 170.819491924 -300 -180
20.0125 0.78444268954 172.235554057 -300 -180
20.11 0.931185607329 170.206033996 -300 -180
20.2075 0.598544394369 170.848909321 -300 -180
20.305 0.819250486019 172.029614864 -300 -180
20.4025 0.902411204032 169.78199167 -300 -180
20.5 0.601912879466 170.875846461 -300 -180
20.5975 0.85437772173 171.787115446 -300 -180
20.695 0.865524092884 169.415744976 -300 -180
20.7925 0.610819037935 170.894319396 -300 -180
20.89 0.888937204217 171.504445997 -300 -180
20.9875 0.823226400944 169.119305059 -300 -180
21.085 0.624668954979 170.900028835 -300 -180
21.1825 0.921770009942 171.179237924 -300 -180
21.28 0.778656084906 168.89814497 -300 -180
21.3775 0.64289019754 170.88979274 -300 -180
21.475 0.951467619557 170.811386439 -300 -0
21.5725 0.735190488203 168.751375788 -300 -180
21.67 0.665239346909 170.859361239 -300 -0
21.7675 0.976296641525 170.399598463 -300 -0
21.865 0.695173465146 168.672526461 -300 -0
21.9625 0.691452272606 170.80833652 -300 -0
22.06 0.994897157726 169.9481522 -300 -0
22.1575 0.661166615308 168.649789249 -300 -0
22.255 0.722517813401 170.731206218 -300 -0
22.3525 1.00732004514 169.439354569 -300 -0
22.45 0.629185600612 168.633900046 -300 -0
22.5475 0.748140174551 170.631366802 -300 -0
22.645 1.00402949731 168.975640531 -300 -0
22.7425 0.611935425592 168.698339752 -300 -0
22.84 0.783795863611 170.495867301 -300 -0
22.9375 0.992518116912 168.470738098 -300 -0
23.035 0.599567298525 168.762347207 -300 -0
23.1325 0.819946487889 170.328879807 -300 -0
23.23 0.969226855009 167.985864764 -300 -0
23.3275 0.594451274045 168.831438092 -300 -0
23.425 0.857145171109 170.124898358 -300 0
23.5225 0.934744569782 167.540998217 -300 0
23.62 0.596158535409 168.898190205 -300 0
23.7175 0.894668874828 169.880656164 -300 0
23.815 0.890890013793 167.158114579 -300 0
23.9125 0.604466913006 168.956356224 -300 0
24.01 0.931845813995 169.590594325 -300 0
24.1075 0.840160963944 166.850354729 -300 0
24.205 0.618380863429 169.001460195 -300 0
24.3025 0.96731140988 169.254267192 -300 0
24.4 0.786363971628 166.629568543 -300 0
24.4975 0.637850608945 169.028573806 -300 0
24.595 0.999886793384 168.866238811 -300 0
24.6925 0.732699413505 166.492893213 -300 0
24.79 0.661763119161 169.034435297 -300 0
24.8875 1.02737553324 168.429600173 -300 0
24.985 0.682852162433 166.438130524 -300 0
25.0825 0.690255075352 169.015744019 -300 0
25.18 1.04807282354 167.943412301 -300 0
25.2775 0.639036673006 166.449857256 -300 0
25.375 0.722346088158 168.969887516 -300 0
25.4725 1.05939296521 167.41826443 -300 0
25.57 0.603628869484 166.516434946 -300 0
25.6675 0.758296960826 168.892344422 -300 0
25.765 1.0593365577 166.860633717 -300 0
25.8625 0.57692007533 166.618735088 -300 0
25.96 0.796996343408 168.780826202 -300 0
26.0575 1.04567086609 166.293539229 -300 0
26.155 0.559801914448 166.744747634 -300 0
26.2525 0.838518254201 168.630005376 -300 0
26.35 1.01725623336 165.736360894 -300 0
26.4475 0.551482863045 166.880365845 -300 0
26.545 0.881823471499 168.437698943 -300 0
26.6425 0.974149004082 165.221970317 -300 0
26.74 0.552030381145 167.016374498 -300 0
26.8375 0.926658668799 168.198094744 -300 0
26.935 0.918173365714 164.776080286 -300 0
27.0325 0.560642785195 167.141664333 -300 0
27.13 0.971722271461 167.904179368 -300 0
27.2275 0.851953989274 164.425655503 -300 0
27.325 0.576760761405 167.252902027 -300 0
27.4225 1.01633575998 167.551137695 -300 0
27.52 0.780131147578 164.182911876 -300 0
27.6175 0.599190230627 167.342106027 -300 0
27.715 1.05814110445 167.135129716 -300 0
27.8125 0.707680536769 164.059618671 -300 0
27.91 0.627966908598 167.407032071 -300 0
28.0075 1.09564921651 166.650303769 -300 0
28.105 0.639433228345 164.045499723 -300 0
28.2025 0.662205586408 167.441745924 -300 0
28.3 1.12559760322 166.094585963 -300 0
28.3975 0.579034678628 164.129577368 -300 0
28.495 0.701706649741 167.446359588 -300 0
28.5925 1.14543464188 165.471866599 -300 180
28.69 0.529582665278 164.286876177 -300 0
28.7875 0.74578465059 167.414517544 -300 180
28.885 1.15102443648 164.792077487 -300 180
28.9825 0.492594742824 164.496610994 -300 0
29.08 0.794100552323 167.342015686 -300 180
29.1775 1.13837142702 164.07513916 -300 180
29.275 0.468544564675 164.739812641 -300 180
29.3725 0.846638658523 167.225646716 -300 180
29.47 1.1047744151 163.350379937 -300 180
29.5675 0.456963664642 164.995064596 -300 180
29.665 0.902633524291 167.059417554 -300 180
29.7625 1.04847740557 162.662571805 -300 180
29.86 0.45744357782 165.24704155 -300 180
29.9575 0.961595625967 166.832866091 -300 180
30.055 0.96930583127 162.059539 -300 180
30.1525 0.468518943999 165.490491788 -300 180
30.25 1.02332609639 166.544572625 -300 180
30.3475 0.872733062592 161.589209741 -300 180
30.445 0.489590483029 165.708453498 -300 180
30.5425 1.08619724473 166.176616659 -300 -180
30.64 0.763977947632 161.289216898 -300 180
30.7375 0.519245437264 165.90062504 -300 180
30.835 1.14879459888 165.722496873 -300 -180
30.9325 0.652488632273 161.179172613 -300 180
31.03 0.557108351369 166.060206091 -300 -180
31.1275 1.20895772978 165.166087823 -300 -180
31.225 0.546799889612 161.251043509 -300 -180
31.3225 0.602352909058 166.182285016 -300 -180
31.42 1.26287162719 164.491335364 -300 -180
31.5175 0.453275781911 161.48102727 -300 -180
31.615 0.653897062425 166.269714086 -300 -180
31.7125 1.30591370979 163.697962516 -300 -180
31.81 0.378496913708 161.832600925 -300 -180
31.9075 0.712113907043 166.314724243 -300 -180
32.005 1.33152232996 162.778477305 -300 -180
32.1025 0.324323351341 162.26401101 -300 -180
32.2 0.776787297713 166.315770744 -300 -180
32.2975 1.33209728139 161.746736972 -300 -180
32.395 0.291178232653 162.733307758 -300 -180
32.4925 0.847605083004 166.264919736 -300 -180
32.59 1.29793860587 160.640161002 -300 -180
32.6875 0.277905547204 163.212861799 -300 -180
32.785 0.925072033135 166.156168395 -300 -180
32.8825 1.22135793655 159.523958686 -300 -180
32.98 0.281871669909 163.677389487 -300 -180
33.0775 1.00864446012 165.981316618 -300 -180
33.175 1.09797075276 158.508028009 -300 -180
33.2725 0.301464944371 164.114062997 -300 -180
33.37 1.09895455324 165.727679021 -300 -180
33.4675 0.9316141203 157.711323073 -300 -180
33.565 0.334351732183 164.511785299 -300 -180
33.6625 1.19572403161 165.376863494 -300 -180
33.76 0.734604665905 157.246786165 -300 -180
33.8575 0.378580399497 164.868194224 -300 -180
33.955 1.29873648716 164.909642859 -300 -180
34.0525 0.528127915674 157.175340075 -300 -180
34.15 0.432579391699 165.177666947 -300 -180
34.2475 1.40608574752 164.295580287 -300 -180
34.345 0.33476244864 157.494993646 -300 -180
34.4425 0.496003031592 165.441622457 -300 -180
34.54 1.51578110462 163.49343007 -300 -180
34.6375 0.172701571018 158.12879744 -300 -180
34.735 0.56785892577 165.660162202 -300 -180
34.8325 1.62250438559 162.457213704 -300 -180
34.93 0.0526629767389 158.969686425 -300 -180
35.0275 0.648113012054 165.831430704 -300 -180
35.125 1.71647377551 161.128663259 -300 -180
35.2225 -0.0233373427508 159.9124399 -300 -180
35.32 0.737265301404 165.955673186 -300 -180
35.4175 1.7817493812 159.452122459 -300 -180
35.515 -0.0593049283053 160.866869812 -300 -180
35.6125 0.835337779755 166.028663277 -300 -180
35.71 1.79084356895 157.406274039 -300 -0
35.8075 -0.0619594919761 161.782929465 -300 -180
35.905 0.943345847209 166.052962562 -300 -0
36.0025 1.70851770114 155.06959537 -300 -0
36.1 -0.0371297339944 162.623062323 -300 -180
36.1975 1.06282482038 166.016115937 -300 -0
36.295 1.49546566463 152.684253257 -300 -0
36.3925 0.00959877301142 163.375109475 -300 -180
36.49 1.19678681821 165.9011296 -300 -0
36.5875 1.13131468112 150.685392439 -300 -0
36.685 0.0707474803842 164.042943845 -300 -0
36.7825 1.34581474626 165.703892087 -300 -0
36.88 0.649698165877 149.662561405 -300 -0
36.9775 0.14545220178 164.632975227 -300 -0
37.075 1.51569165266 165.395201423 -300 0
37.1725 0.13957476673 149.93543716 -300 -0
37.27 0.230402581635 165.147519423 -300 -0
37.3675 1.71062474333 164.930960882 -300 0
37.465 -0.297350932979 151.394761539 -300 -0
37.5625 0.323875576449 165.595947766 -300 -0
37.66 1.9362209592 164.244102683 -300 0
37.7575 -0.598710300311 153.579287467 -300 -0
37.855 0.425193336799 165.992924131 -300 -0
37.9525 2.20007612702 163.234012183 -300 0
38.05 -0.755380057039 155.968299551 -300 -0
38.1475 0.535256878746 166.340142582 -300 0
38.245 2.5104598277 161.69822752 -300 0
38.3425 -0.798464666141 158.221788177 -300 -0
38.44 0.65457029449 166.656212225 -300 0
38.5375 2.87344328032 159.315344989 -300 0
38.635 -0.764123032259 160.169272273 -300 -0
38.7325 0.783706510686 166.939522499 -300 0
38.83 3.26881786386 155.470505191 -300 0
38.9275 -0.682526577629 161.796918364 -300 -0
39.025 0.924887815886 167.20212347 -300 0
39.1225 3.59555874767 149.14967141 -300 0
39.22 -0.574031867078 163.137854367 -300 0
39.3175 1.08114777905 167.454135255 -300 0
39.415 3.50634710406 139.329802473 -300 0
39.5125 -0.451526536865 164.235290958 -300 0
39.61 1.25564640752 167.695944662 -300 0
39.7075 2.29110217979 128.003920495 -300 0
39.805 -0.321761639469 165.157870851 -300 0
39.9025 1.4548991791 167.958653253 -300 0
40 -0.179531747763 123.579826034 -300 0
